\* LinearProgrammingforValueFunction *\
Minimize
Sum_of_V(s)_for_all_S: x_0 + x_1 + x_10 + x_11 + x_12 + x_13 + x_14 + x_15
 + x_16 + x_17 + x_18 + x_19 + x_2 + x_20 + x_21 + x_22 + x_23 + x_24 + x_25
 + x_26 + x_27 + x_28 + x_29 + x_3 + x_30 + x_31 + x_32 + x_33 + x_34 + x_35
 + x_36 + x_37 + x_38 + x_39 + x_4 + x_40 + x_41 + x_42 + x_43 + x_44 + x_45
 + x_46 + x_47 + x_48 + x_49 + x_5 + x_6 + x_7 + x_8 + x_9
Subject To
s0_a0: x_0 - 0.161693548387 x_14 - 0.345967741935 x_23 - 0.392338709677 x_5
 >= 0.503741829753
s0_a1: x_0 - 0.290144546649 x_19 - 0.0749014454665 x_2 - 0.193561103811 x_40
 - 0.291327201051 x_5 - 0.0500657030223 x_7 >= 0.329333574028
s0_a10: x_0 - 0.9 x_5 >= -0.980071517374
s0_a11: x_0 - 0.66538139145 x_40 - 0.23461860855 x_5 >= -0.103495015787
s0_a12: x_0 - 0.179420056383 x_18 - 0.0757551349174 x_19 - 0.280547724527 x_24
 - 0.032259363673 x_34 - 0.332017720499 x_5 >= 0.0565473507163
s0_a13: x_0 - 0.9 x_5 >= 0.781397833228
s0_a14: x_0 - 0.655949656751 x_2 - 0.244050343249 x_5 >= 0.11468825109
s0_a15: x_0 - 0.9 x_5 >= 0.173060517162
s0_a16: x_0 - 0.9 x_5 >= 0.941351586709
s0_a17: x_0 - 0.294860008358 x_24 - 0.0383618888425 x_37 - 0.248223986628 x_5
 - 0.318554116172 x_8 >= -0.468212071995
s0_a18: x_0 - 0.212206874398 x_46 - 0.0682300032123 x_47 - 0.419498875683 x_5
 - 0.200064246707 x_6 >= 0.163830935405
s0_a19: x_0 - 0.0990118577075 x_37 - 0.401383399209 x_42 - 0.399604743083 x_5
 >= 0.416294529887
s0_a2: x_0 - 0.9 x_5 >= -0.222715514337
s0_a3: x_0 - 0.555109489051 x_4 - 0.043795620438 x_43 - 0.301094890511 x_5
 >= -0.166527616308
s0_a4: x_0 - 0.348309608541 x_12 - 0.373131672598 x_28 - 0.178558718861 x_5
 >= 0.567961274779
s0_a5: x_0 - 0.218924835806 x_33 - 0.0770615422038 x_39 - 0.17908051569 x_47
 - 0.242787642909 x_5 - 0.182145463391 x_7 >= -0.336792312626
s0_a6: x_0 - 0.236957700651 x_27 - 0.199376355748 x_40 - 0.0541757049892 x_44
 - 0.409490238612 x_5 >= -0.697808202358
s0_a7: x_0 - 0.503017241379 x_31 - 0.396982758621 x_5 >= -0.589080894013
s0_a8: x_0 - 0.24308681672 x_39 - 0.439871382637 x_40 - 0.217041800643 x_5
 >= -0.733336540863
s0_a9: x_0 - 0.722358722359 x_14 - 0.177641277641 x_5 >= -0.178152384132
s10_a0: x_10 - 0.317307692308 x_18 - 0.582692307692 x_30 >= 0.430222012232
s10_a1: - 0.0044499381953 x_0 + x_10 - 0.314833127318 x_18
 - 0.335970333745 x_22 - 0.244746600742 x_48 >= -0.0290881535537
s10_a10: x_10 - 0.100796416127 x_17 - 0.36331508213 x_18 - 0.435888501742 x_48
 >= -0.445340270435
s10_a11: x_10 - 0.9 x_18 >= 0.398983423069
s10_a12: x_10 - 0.401538461538 x_18 - 0.159020979021 x_27
 - 0.173706293706 x_32 - 0.165734265734 x_37 >= -0.39738119574
s10_a13: x_10 - 0.184199363733 x_14 - 0.250530222694 x_18 - 0.176564156946 x_2
 - 0.198515376458 x_42 - 0.0901908801697 x_7 >= 0.136148675857
s10_a14: x_10 - 0.166995073892 x_18 - 0.288916256158 x_32
 - 0.00221674876847 x_34 - 0.191009852217 x_46 - 0.250862068966 x_8
 >= -0.0277288875138
s10_a15: x_10 - 0.9 x_18 >= -0.880072441803
s10_a16: x_10 - 0.9 x_18 >= 0.0150954153974
s10_a17: x_10 - 0.323357981731 x_14 - 0.211787733797 x_18
 - 0.0324923879948 x_32 - 0.332361896477 x_35 >= -0.116155272496
s10_a18: x_10 - 0.301438583549 x_13 - 0.0285503504242 x_16
 - 0.275544079675 x_18 - 0.294466986352 x_30 >= -0.162546128636
s10_a19: x_10 - 0.214559599889 x_18 - 0.233814948597 x_24
 - 0.215559877744 x_39 - 0.23606557377 x_5 >= 0.388265549825
s10_a2: x_10 - 0.533443708609 x_17 - 0.366556291391 x_18 >= -0.516951420003
s10_a3: x_10 - 0.9 x_18 >= 0.329611049559
s10_a4: - 0.0467792092403 x_1 + x_10 - 0.0647712127943 x_16
 - 0.375832963127 x_18 - 0.280275433141 x_20 - 0.132341181697 x_36
 >= -0.497714455359
s10_a5: x_10 - 0.416770963705 x_18 - 0.151314142678 x_39 - 0.331914893617 x_42
 >= 0.0266289585725
s10_a6: x_10 - 0.260240963855 x_18 - 0.639759036145 x_43 >= 0.399786211489
s10_a7: x_10 - 0.395327102804 x_18 - 0.504672897196 x_46 >= -0.406687739215
s10_a8: 0.4 x_10 - 0.3 x_18 >= 0.273124809383
s10_a9: x_10 - 0.162190812721 x_18 - 0.737809187279 x_22 >= -0.0906155344658
s11_a0: 0.983423618635 x_11 - 0.358342361863 x_23 - 0.124322860238 x_26
 - 0.400758396533 x_8 >= 0.625778383496
s11_a1: - 0.13016973464 x_10 + 0.82529285202 x_11 - 0.195792493426 x_13
 - 0.399330623954 x_23 >= -0.320345985773
s11_a10: x_11 - 0.287064935065 x_17 - 0.443688311688 x_23
 - 0.131376623377 x_40 - 0.0378701298701 x_47 >= 0.528130846402
s11_a11: x_11 - 0.285773195876 x_14 - 0.365567010309 x_23
 - 0.248659793814 x_48 >= 0.0636528640019
s11_a12: x_11 - 0.499285714286 x_2 - 0.291964285714 x_23
 - 0.0760714285714 x_33 - 0.0326785714286 x_45 >= 0.635697901098
s11_a13: x_11 - 0.330751708428 x_13 - 0.205011389522 x_22
 - 0.210478359909 x_23 - 0.153758542141 x_26 >= 0.536083011325
s11_a14: x_11 - 0.303184357542 x_23 - 0.243854748603 x_25 - 0.169441340782 x_3
 - 0.183519553073 x_42 >= 0.370291195752
s11_a15: x_11 - 0.549184975195 x_20 - 0.250673281361 x_23
 - 0.100141743444 x_47 >= -0.244498388781
s11_a16: x_11 - 0.242448979592 x_19 - 0.438244897959 x_23 - 0.219306122449 x_6
 >= -0.0615036794237
s11_a17: x_11 - 0.327192118227 x_23 - 0.36354679803 x_29
 - 0.0359113300493 x_30 - 0.0784729064039 x_38 - 0.0948768472906 x_43
 >= -0.421870584828
s11_a18: x_11 - 0.616483516484 x_12 - 0.283516483516 x_23 >= -0.298294256865
s11_a19: x_11 - 0.232330827068 x_23 - 0.667669172932 x_46 >= -0.370757846488
s11_a2: x_11 - 0.667369385885 x_21 - 0.232630614115 x_23 >= 0.626408457159
s11_a3: x_11 - 0.228813559322 x_23 - 0.671186440678 x_41 >= 0.206877180577
s11_a4: x_11 - 0.0185567010309 x_21 - 0.250515463918 x_23
 - 0.630927835052 x_47 >= -0.525808347622
s11_a5: - 0.525627376426 x_1 + x_11 - 0.292927756654 x_23
 - 0.0814448669202 x_48 >= 0.368243079463
s11_a6: x_11 - 0.0812462006079 x_21 - 0.437963525836 x_23
 - 0.211185410334 x_28 - 0.169604863222 x_48 >= -0.231255123646
s11_a7: x_11 - 0.224154135338 x_23 - 0.675845864662 x_7 >= 0.313926604198
s11_a8: x_11 - 0.9 x_23 >= 0.555059974184
s11_a9: x_11 - 0.266003062787 x_23 - 0.053751914242 x_38 - 0.580245022971 x_6
 >= -0.340001318442
s12_a0: x_12 - 0.221523876404 x_24 - 0.306846910112 x_29
 - 0.0745786516854 x_30 - 0.174122191011 x_4 - 0.122928370787 x_5
 >= 0.0636633749254
s12_a1: x_12 - 0.9 x_4 >= -0.11468642373
s12_a10: x_12 - 0.440150943396 x_4 - 0.459849056604 x_40 >= 0.0436806095118
s12_a11: x_12 - 0.269865067466 x_34 - 0.382533733133 x_4 - 0.011131934033 x_40
 - 0.236469265367 x_42 >= 0.081550599881
s12_a12: x_12 - 0.173752711497 x_28 - 0.165411161507 x_34 - 0.439972392033 x_4
 - 0.120863734964 x_5 >= 0.139406453422
s12_a13: x_12 - 0.170733427362 x_13 - 0.246897038082 x_19
 - 0.269746121298 x_31 - 0.207863187588 x_4 - 0.00476022566996 x_5
 >= 0.16606116259
s12_a14: x_12 - 0.44858044164 x_3 - 0.423596214511 x_4 - 0.0278233438486 x_46
 >= -0.44176011932
s12_a15: - 0.0927480916031 x_0 + x_12 - 0.188501908397 x_22
 - 0.208253816794 x_33 - 0.410496183206 x_4 >= -0.607260064268
s12_a16: x_12 - 0.0181208053691 x_26 - 0.303825503356 x_3
 - 0.184832214765 x_39 - 0.39322147651 x_4 >= 0.528068324527
s12_a17: x_12 - 0.9 x_4 >= 0.867073650276
s12_a18: x_12 - 0.144827586207 x_19 - 0.151034482759 x_29 - 0.356551724138 x_4
 - 0.154482758621 x_5 - 0.0931034482759 x_8 >= 0.652163214483
s12_a19: x_12 - 0.9 x_4 >= -0.171785784817
s12_a2: x_12 - 0.0472658364916 x_30 - 0.397130481862 x_4 - 0.215863562534 x_41
 - 0.239740119112 x_7 >= -0.0722170332269
s12_a3: x_12 - 0.236416861827 x_2 - 0.154215456674 x_23 - 0.184074941452 x_4
 - 0.0154566744731 x_41 - 0.309836065574 x_9 >= 0.107379364676
s12_a4: x_12 - 0.697959183673 x_17 - 0.0336734693878 x_21 - 0.168367346939 x_4
 >= -0.30426538303
s12_a5: x_12 - 0.112626546682 x_15 - 0.218672665917 x_26 - 0.135658042745 x_31
 - 0.433042744657 x_4 >= 0.0107202681716
s12_a6: x_12 - 0.41335504886 x_4 - 0.48664495114 x_46 >= -0.260387312235
s12_a7: x_12 - 0.0932182490752 x_34 - 0.386189889026 x_39 - 0.420591861899 x_4
 >= 0.212321217977
s12_a8: x_12 - 0.095034965035 x_26 - 0.0978671328671 x_29
 - 0.224685314685 x_39 - 0.437412587413 x_4 - 0.045 x_9 >= 0.0133148463555
s12_a9: x_12 - 0.045251396648 x_39 - 0.369553072626 x_4 - 0.359497206704 x_40
 - 0.125698324022 x_7 >= 0.593463384317
s13_a0: x_13 - 0.9 x_42 >= -0.244001092241
s13_a1: - 0.358461538462 x_11 + x_13 - 0.0515384615385 x_16
 - 0.322307692308 x_22 - 0.167692307692 x_42 >= 0.208631460586
s13_a10: - 0.275113636364 x_10 + x_13 - 0.301704545455 x_32
 - 0.323181818182 x_42 >= -0.111897821206
s13_a11: x_13 - 0.9 x_42 >= 0.858496269419
s13_a12: - 0.245878290893 x_1 + x_13 - 0.122356495468 x_23
 - 0.316184721623 x_34 - 0.215580492016 x_42 >= 0.441525986745
s13_a13: x_13 - 0.501952035694 x_26 - 0.0612381483547 x_38
 - 0.336809815951 x_42 >= -0.328095962614
s13_a14: x_13 - 0.103129732458 x_21 - 0.170595658758 x_3 - 0.11925795053 x_31
 - 0.289626451287 x_42 - 0.217390206966 x_9 >= -0.00647704297235
s13_a15: x_13 - 0.9 x_42 >= -0.0651091527634
s13_a16: x_13 - 0.9 x_42 >= 0.86616200761
s13_a17: x_13 - 0.9 x_42 >= -0.504409030763
s13_a18: x_13 - 0.105404023184 x_28 - 0.140692124105 x_32
 - 0.410876235936 x_42 - 0.146522332083 x_43 - 0.0965052846914 x_48
 >= 0.214200514678
s13_a19: x_13 - 0.9 x_42 >= -0.969204150674
s13_a2: x_13 - 0.4703125 x_4 - 0.4296875 x_42 >= -0.282506574243
s13_a3: - 0.587160751566 x_10 + x_13 - 0.312839248434 x_42 >= 0.0606313957983
s13_a4: x_13 - 0.9 x_42 >= -0.234094406796
s13_a5: x_13 - 0.24643245201 x_32 - 0.263056863455 x_39 - 0.320101412532 x_42
 - 0.0704092720029 x_5 >= 0.356086866862
s13_a6: x_13 - 0.9 x_42 >= -0.808962822457
s13_a7: x_13 - 0.216821258461 x_14 - 0.214339433442 x_25 - 0.203058410629 x_3
 - 0.265780897468 x_42 >= 0.3923229851
s13_a8: 0.970984162896 x_13 - 0.148642533937 x_14 - 0.198529411765 x_21
 - 0.193438914027 x_4 - 0.330373303167 x_42 >= -0.329446374796
s13_a9: x_13 - 0.114322747894 x_36 - 0.375923525599 x_42
 - 0.0341218405703 x_44 - 0.122780298121 x_7 - 0.252851587816 x_9
 >= -0.274705348386
s14_a0: x_14 - 0.9 x_40 >= 0.909775217961
s14_a1: x_14 - 0.303053435115 x_15 - 0.122900763359 x_28 - 0.348091603053 x_40
 - 0.125954198473 x_46 >= 0.0455411450339
s14_a10: x_14 - 0.9 x_40 >= 0.795863287443
s14_a11: x_14 - 0.488226527571 x_35 - 0.411773472429 x_40 >= -0.116614174077
s14_a12: x_14 - 0.136557610242 x_24 - 0.323044096728 x_37 - 0.44039829303 x_40
 >= -0.130085834524
s14_a13: x_14 - 0.692307692308 x_21 - 0.207692307692 x_40 >= -0.433633028768
s14_a14: x_14 - 0.9 x_40 >= -0.852700959449
s14_a15: x_14 - 0.683766233766 x_27 - 0.216233766234 x_40 >= 0.59093280103
s14_a16: x_14 - 0.9 x_40 >= -0.93114398752
s14_a17: - 0.0365044247788 x_12 + x_14 - 0.182190265487 x_16
 - 0.342146017699 x_40 - 0.145685840708 x_48 - 0.193473451327 x_8
 >= -0.150470544257
s14_a18: x_14 - 0.568181818182 x_2 - 0.331818181818 x_40 >= 0.43134499893
s14_a19: x_14 - 0.9 x_40 >= -0.419031475184
s14_a2: x_14 - 0.495238095238 x_17 - 0.404761904762 x_40 >= -0.562464173873
s14_a3: x_14 - 0.45251396648 x_30 - 0.44748603352 x_40 >= -0.480883716709
s14_a4: x_14 - 0.401950718686 x_40 - 0.498049281314 x_6 >= 0.290926589109
s14_a5: - 0.166570397112 x_0 - 0.214440433213 x_1 + x_14 - 0.134729241877 x_28
 - 0.384259927798 x_40 >= -0.211737863128
s14_a6: x_14 - 0.9 x_40 >= 0.751356313886
s14_a7: x_14 - 0.234916413374 x_33 - 0.441451367781 x_40 - 0.223632218845 x_47
 >= 0.263128848884
s14_a8: - 0.361960620025 x_10 - 0.0531629660662 x_12 + x_14
 - 0.116883116883 x_2 - 0.367993297026 x_40 >= 0.0635671809749
s14_a9: x_14 - 0.9 x_40 >= 0.00755384707826
s15_a0: x_15 - 0.229374671571 x_2 - 0.425170782974 x_26 - 0.245454545455 x_49
 >= -0.0386488022719
s15_a1: x_15 - 0.415384615385 x_17 - 0.165659340659 x_26 - 0.318956043956 x_27
 >= 0.183100761195
s15_a10: x_15 - 0.351458576429 x_26 - 0.253792298716 x_35
 - 0.294749124854 x_38 >= 0.341402703845
s15_a11: - 0.259877622378 x_12 - 0.0356643356643 x_14 + x_15
 - 0.40541958042 x_26 - 0.199038461538 x_37 >= -0.241305199008
s15_a12: x_15 - 0.236555891239 x_20 - 0.0466767371601 x_24
 - 0.226132930514 x_26 - 0.164501510574 x_30 - 0.226132930514 x_46
 >= 0.248021051678
s15_a13: x_15 - 0.263058589871 x_19 - 0.429294935452 x_26 - 0.207646474677 x_4
 >= 0.0943758776041
s15_a14: x_15 - 0.35226993865 x_26 - 0.316380368098 x_36 - 0.200981595092 x_38
 - 0.0303680981595 x_4 >= -0.133650104615
s15_a15: x_15 - 0.9 x_26 >= 0.808682588506
s15_a16: x_15 - 0.0808703819662 x_19 - 0.357858484659 x_26
 - 0.251909830933 x_36 - 0.18541014402 x_49 - 0.023951158422 x_5
 >= -0.234018625365
s15_a17: x_15 - 0.745856353591 x_22 - 0.154143646409 x_26 >= 0.585971552781
s15_a18: x_15 - 0.124284032954 x_20 - 0.323420949392 x_22
 - 0.184307571597 x_26 - 0.267987446057 x_36 >= 0.554671428667
s15_a19: x_15 - 0.575708502024 x_24 - 0.324291497976 x_26 >= -0.204181258486
s15_a2: x_15 - 0.9 x_26 >= 0.59904026214
s15_a3: x_15 - 0.114326040932 x_19 - 0.449682427664 x_26 - 0.229287226535 x_29
 - 0.106704304869 x_39 >= -0.571940446568
s15_a4: x_15 - 0.0490587243608 x_24 - 0.244787861759 x_26
 - 0.187131216634 x_33 - 0.183590896319 x_40 - 0.235431300927 x_42
 >= -0.165488155578
s15_a5: - 0.0101963746224 x_14 + x_15 - 0.277341389728 x_26
 - 0.0176737160121 x_30 - 0.594788519637 x_42 >= 0.531839455025
s15_a6: x_15 - 0.9 x_26 >= 0.265136681583
s15_a7: x_15 - 0.9 x_26 >= 0.454320050609
s15_a8: x_15 - 0.9 x_26 >= 0.561242983164
s15_a9: - 0.20879541109 x_11 + x_15 - 0.279349904398 x_24
 - 0.372848948375 x_26 - 0.0390057361377 x_38 >= -0.099934929449
s16_a0: x_16 >= 0
s16_a1: x_16 >= 0
s16_a10: x_16 >= 0
s16_a11: x_16 >= 0
s16_a12: x_16 >= 0
s16_a13: x_16 >= 0
s16_a14: x_16 >= 0
s16_a15: x_16 >= 0
s16_a16: x_16 >= 0
s16_a17: x_16 >= 0
s16_a18: x_16 >= 0
s16_a19: x_16 >= 0
s16_a2: x_16 >= 0
s16_a3: x_16 >= 0
s16_a4: x_16 >= 0
s16_a5: x_16 >= 0
s16_a6: x_16 >= 0
s16_a7: x_16 >= 0
s16_a8: x_16 >= 0
s16_a9: x_16 >= 0
s17_a0: - 0.331746031746 x_11 + x_17 - 0.193650793651 x_27
 - 0.0607142857143 x_28 - 0.313888888889 x_4 >= -0.135553983367
s17_a1: - 0.186324324324 x_1 - 0.408162162162 x_11 + x_17 - 0.150810810811 x_4
 - 0.154702702703 x_44 >= -0.224564462445
s17_a10: - 0.213488372093 x_11 + x_17 - 0.686511627907 x_5 >= -0.917874872498
s17_a11: - 0.302382843527 x_11 + x_17 - 0.181930103257 x_20
 - 0.291302621128 x_23 - 0.124384432089 x_40 >= 0.180617648245
s17_a12: - 0.328205128205 x_11 + x_17 - 0.571794871795 x_18 >= 0.265739445733
s17_a13: - 0.270613562971 x_0 - 0.223143164693 x_11 + x_17
 - 0.0100107642626 x_36 - 0.221851453175 x_40 - 0.174381054898 x_44
 >= -0.258256282474
s17_a14: - 0.9 x_11 + x_17 >= -0.332112691479
s17_a15: - 0.374715549937 x_11 + x_17 - 0.156637168142 x_21
 - 0.205562579014 x_23 - 0.142983565107 x_35 - 0.0201011378003 x_6
 >= -0.516016894249
s17_a16: - 0.3894 x_11 + x_17 - 0.5106 x_36 >= 0.220851719976
s17_a17: - 0.198959687906 x_11 + x_17 - 0.388166449935 x_25
 - 0.312873862159 x_7 >= 0.213016438372
s17_a18: - 0.260396039604 x_11 - 0.296369636964 x_15 + x_17
 - 0.0947194719472 x_18 - 0.190429042904 x_25 - 0.0580858085809 x_43
 >= -0.0328441795301
s17_a19: - 0.186015424165 x_11 - 0.243393316195 x_14 + x_17
 - 0.341953727506 x_31 - 0.128637532134 x_7 >= -0.0243511186761
s17_a2: - 0.411627906977 x_11 + x_17 - 0.304830053667 x_28
 - 0.183542039356 x_5 >= -0.237182672403
s17_a3: - 0.433685800604 x_11 - 0.466314199396 x_16 + x_17 >= -0.202266702111
s17_a4: - 0.138345233095 x_0 - 0.415035699286 x_11 + x_17
 - 0.0595338093238 x_29 - 0.154031919362 x_3 - 0.133053338933 x_37
 >= -0.457128973024
s17_a5: - 0.24308681672 x_10 - 0.387781350482 x_11 + x_17
 - 0.269131832797 x_27 >= 0.308626512063
s17_a6: - 0.370648078372 x_11 + x_17 - 0.0566314996232 x_25
 - 0.197701582517 x_35 - 0.0169555388093 x_39 - 0.258063300678 x_41
 >= -0.211207049826
s17_a7: - 0.389361702128 x_11 + x_17 - 0.169503546099 x_39
 - 0.341134751773 x_49 >= 0.139315012397
s17_a8: - 0.258099173554 x_11 + x_17 - 0.505785123967 x_20
 - 0.136115702479 x_4 >= -0.352748731802
s17_a9: - 0.325862068966 x_11 + x_17 - 0.574137931034 x_3 >= 0.718521852823
s18_a0: x_18 - 0.9 x_7 >= 0.516816972341
s18_a1: 0.942824730573 x_18 - 0.294044242768 x_27 - 0.0658536585366 x_47
 - 0.311401020987 x_6 - 0.171525808281 x_7 >= -0.0122070236526
s18_a10: - 0.123948296122 x_1 - 0.204535840188 x_15 + x_18
 - 0.024535840188 x_2 - 0.107661574618 x_29 - 0.439318448884 x_7
 >= 0.607061725133
s18_a11: x_18 - 0.9 x_7 >= 0.579983008439
s18_a12: x_18 - 0.236109282423 x_2 - 0.0334759710336 x_25
 - 0.173008558262 x_30 - 0.05362080316 x_47 - 0.403785385122 x_7
 >= 0.559949126491
s18_a13: x_18 - 0.9 x_7 >= -0.218245317077
s18_a14: - 0.506916996047 x_12 + x_18 - 0.393083003953 x_7 >= 0.713801795929
s18_a15: x_18 - 0.744545454545 x_31 - 0.155454545455 x_7 >= -0.213237275056
s18_a16: x_18 - 0.159082954148 x_24 - 0.253272663633 x_26
 - 0.117500875044 x_34 - 0.0182709135457 x_5 - 0.35187259363 x_7
 >= -0.267099057906
s18_a17: x_18 - 0.9 x_7 >= -0.278610068873
s18_a18: - 0.100088613203 x_12 - 0.298670801949 x_14 + x_18
 - 0.0693841382366 x_28 - 0.0115640230394 x_39 - 0.420292423571 x_7
 >= 0.0131762185446
s18_a19: x_18 - 0.320454545455 x_7 - 0.579545454545 x_9 >= 0.0294569972608
s18_a2: x_18 - 0.265317919075 x_24 - 0.180222956235 x_25 - 0.202146985962 x_28
 - 0.0795210569777 x_3 - 0.172791081751 x_7 >= -0.0255544335523
s18_a3: - 0.0366141732283 x_0 - 0.406299212598 x_13 + x_18
 - 0.0106299212598 x_49 - 0.446456692913 x_7 >= -0.433513428839
s18_a4: x_18 - 0.9 x_7 >= 0.689265450414
s18_a5: - 0.15632183908 x_12 + x_18 - 0.0287356321839 x_48
 - 0.150574712644 x_7 - 0.564367816092 x_8 >= -0.316970629366
s18_a6: - 0.294904722452 x_13 + x_18 - 0.00969345484673 x_26
 - 0.201698425849 x_34 - 0.0499585749793 x_48 - 0.343744821872 x_7
 >= 0.0630657948327
s18_a7: x_18 - 0.467558528428 x_3 - 0.432441471572 x_7 >= -0.10319342787
s18_a8: x_18 - 0.673673870334 x_45 - 0.226326129666 x_7 >= -0.496063437263
s18_a9: - 0.075375 x_1 - 0.1962 x_13 + x_18 - 0.16605 x_31 - 0.187425 x_34
 - 0.27495 x_7 >= -0.22896118018
s19_a0: - 0.172 x_17 + x_19 - 0.728 x_3 >= -0.254902103412
s19_a1: - 0.070685840708 x_15 - 0.333849557522 x_17 + x_19
 - 0.0534292035398 x_28 - 0.171238938053 x_47 - 0.270796460177 x_6
 >= 0.435423266586
s19_a10: - 0.281117647059 x_17 - 0.384352941176 x_18 + x_19
 - 0.0857647058824 x_21 - 0.148764705882 x_47 >= 0.0213197332533
s19_a11: - 0.284757505774 x_17 + x_19 - 0.184988452656 x_35
 - 0.43025404157 x_38 >= -0.363448739507
s19_a12: - 0.17898089172 x_17 + 0.624203821656 x_19 - 0.345222929936 x_46
 >= 0.0216504352513
s19_a13: - 0.248544891641 x_16 - 0.213436532508 x_17 + x_19
 - 0.221795665635 x_29 - 0.216222910217 x_7 >= -0.255313749485
s19_a14: - 0.445161290323 x_17 + x_19 - 0.454838709677 x_2 >= -0.113930412442
s19_a15: - 0.352806850618 x_17 + x_19 - 0.547193149382 x_41 >= 0.493399079704
s19_a16: - 0.40169769989 x_17 + 0.964019715225 x_19 - 0.128148959474 x_22
 - 0.259255202629 x_31 - 0.0749178532311 x_40 >= 0.0513426083087
s19_a17: - 0.9 x_17 + x_19 >= -0.722289051236
s19_a18: - 0.405207226355 x_17 + x_19 - 0.179489904357 x_2
 - 0.315302869288 x_44 >= 0.648268823552
s19_a19: - 0.9 x_17 + x_19 >= 0.367860229853
s19_a2: - 0.34776203966 x_17 + x_19 - 0.139036827195 x_20
 - 0.164192634561 x_31 - 0.100283286119 x_48 - 0.148725212465 x_8
 >= 0.167093071705
s19_a3: - 0.197745716862 x_1 - 0.329486023445 x_17 + x_19
 - 0.241027953111 x_27 - 0.131740306583 x_40 >= -0.438128234664
s19_a4: - 0.279634464752 x_17 + 0.719895561358 x_19 - 0.0441775456919 x_22
 - 0.296083550914 x_25 >= -0.015995300263
s19_a5: - 0.4 x_17 + x_19 - 0.346691176471 x_35 - 0.0477941176471 x_40
 - 0.105514705882 x_48 >= -0.57036721383
s19_a6: - 0.9 x_17 + x_19 >= 0.187105481208
s19_a7: - 0.42636425648 x_17 + x_19 - 0.231139154161 x_30
 - 0.0985334242838 x_39 - 0.0868690313779 x_4 - 0.0570941336971 x_43
 >= -0.388749365405
s19_a8: - 0.289038461538 x_17 + x_19 - 0.332653846154 x_7 - 0.278307692308 x_9
 >= -0.549114439315
s19_a9: - 0.188084326306 x_17 + x_19 - 0.200045829514 x_21
 - 0.0391842346471 x_39 - 0.158799266728 x_48 - 0.313886342805 x_49
 >= -0.23643711542
s1_a0: x_1 - 0.31245745405 x_28 - 0.0894486044929 x_30 - 0.224846834581 x_31
 - 0.273247106875 x_33 >= 0.270537390162
s1_a1: x_1 - 0.525583203733 x_14 - 0.374416796267 x_28 >= -0.0345866658203
s1_a10: x_1 - 0.414514285714 x_28 - 0.485485714286 x_44 >= -0.436348612959
s1_a11: x_1 - 0.0611483253589 x_14 - 0.273875598086 x_28 - 0.32038277512 x_36
 - 0.244593301435 x_40 >= 0.110803042563
s1_a12: x_1 - 0.707142857143 x_24 - 0.192857142857 x_28 >= -0.0693649681049
s1_a13: x_1 - 0.271952131638 x_2 - 0.326477187734 x_25 - 0.301570680628 x_28
 >= -0.100308121518
s1_a14: x_1 - 0.55 x_12 - 0.35 x_28 >= -0.317470325891
s1_a15: x_1 - 0.217741935484 x_28 - 0.682258064516 x_8 >= 0.573066155616
s1_a16: x_1 - 0.156362153344 x_21 - 0.191598694943 x_28 - 0.2338091354 x_46
 - 0.318230016313 x_49 >= -0.111940895588
s1_a17: x_1 - 0.271535836177 x_25 - 0.333583617747 x_28 - 0.0737201365188 x_29
 - 0.0783276450512 x_33 - 0.142832764505 x_47 >= -0.159709519868
s1_a18: x_1 - 0.0544051446945 x_11 - 0.153954983923 x_17 - 0.417877813505 x_28
 - 0.273762057878 x_46 >= 0.329828802928
s1_a19: x_1 - 0.162758346582 x_28 - 0.25826709062 x_30 - 0.0171701112878 x_31
 - 0.326947535771 x_34 - 0.134856915739 x_48 >= 0.271341064369
s1_a2: x_1 - 0.9 x_28 >= -0.582060529053
s1_a3: x_1 - 0.176894639556 x_16 - 0.161922365989 x_24 - 0.247319778189 x_27
 - 0.16247689464 x_28 - 0.151386321627 x_7 >= 0.218308426404
s1_a4: x_1 - 0.145969289827 x_26 - 0.196928982726 x_28 - 0.16669865643 x_45
 - 0.390403071017 x_8 >= 0.357219368829
s1_a5: x_1 - 0.235551585529 x_28 - 0.129834747655 x_3 - 0.372621706119 x_38
 - 0.161991960697 x_43 >= 0.541118451141
s1_a6: 0.691015339664 x_1 - 0.239298758218 x_28 - 0.351716581446 x_41
 >= -0.0710074175215
s1_a7: x_1 - 0.186085825748 x_16 - 0.376267880364 x_28 - 0.337646293888 x_48
 >= -0.0709587815411
s1_a8: x_1 - 0.182054533925 x_13 - 0.362967660114 x_28 - 0.183766645529 x_33
 - 0.171211160431 x_36 >= -0.0252544298989
s1_a9: x_1 - 0.9 x_28 >= 0.422410462021
s20_a0: - 0.388944723618 x_0 - 0.104020100503 x_15 + x_20 - 0.407035175879 x_9
 >= 0.55136468202
s20_a1: x_20 - 0.9 x_9 >= -0.273127357165
s20_a10: - 0.296771037182 x_17 + x_20 - 0.181409001957 x_24
 - 0.421819960861 x_9 >= -0.354638031977
s20_a11: 0.856543992201 x_20 - 0.169120155983 x_41 - 0.0605410675116 x_43
 - 0.120204728248 x_47 - 0.406678040458 x_9 >= 0.0474906451744
s20_a12: x_20 - 0.9 x_9 >= 0.902226551131
s20_a13: x_20 - 0.494262295082 x_29 - 0.405737704918 x_9 >= -0.688086545472
s20_a14: x_20 - 0.9 x_9 >= 0.301879926854
s20_a15: x_20 - 0.558974358974 x_44 - 0.341025641026 x_9 >= 0.32632201567
s20_a16: - 0.186946972074 x_17 + x_20 - 0.195136491999 x_27
 - 0.0731408848447 x_29 - 0.444775651083 x_9 >= -0.466267563717
s20_a17: x_20 - 0.9 x_9 >= -0.881191870735
s20_a18: - 0.655177743431 x_2 + x_20 - 0.244822256569 x_9 >= 0.0175978519844
s20_a19: x_20 - 0.9 x_9 >= -0.960027794608
s20_a2: - 0.278735632184 x_17 - 0.197701149425 x_2 + x_20 - 0.423563218391 x_9
 >= -0.271406923675
s20_a3: - 0.677958236659 x_19 + x_20 - 0.222041763341 x_9 >= 0.106227403187
s20_a4: x_20 - 0.693698630137 x_34 - 0.206301369863 x_9 >= -0.514816542371
s20_a5: x_20 - 0.9 x_9 >= -0.146785926475
s20_a6: x_20 - 0.532058823529 x_45 - 0.367941176471 x_9 >= 0.521810184826
s20_a7: x_20 - 0.184332688588 x_28 - 0.178723404255 x_29 - 0.095164410058 x_4
 - 0.015667311412 x_48 - 0.426112185687 x_9 >= 0.260907256225
s20_a8: - 0.0714002380008 x_10 + x_20 - 0.172788575962 x_29
 - 0.349147163824 x_42 - 0.306664022213 x_9 >= 0.453762018577
s20_a9: x_20 - 0.9 x_9 >= 0.745852099261
s21_a0: - 0.692307692308 x_2 + x_21 - 0.207692307692 x_27 >= 0.57937433447
s21_a1: x_21 - 0.18 x_27 - 0.72 x_4 >= -0.427736455652
s21_a10: x_21 - 0.9 x_27 >= -0.0163610872613
s21_a11: x_21 - 0.411395646607 x_27 - 0.0164212548015 x_28
 - 0.198783610755 x_29 - 0.104865556978 x_38 - 0.168533930858 x_9
 >= -0.239067729676
s21_a12: x_21 - 0.0358407079646 x_23 - 0.38296460177 x_27
 - 0.285066371681 x_34 - 0.188827433628 x_45 - 0.00730088495575 x_6
 >= -0.128349083227
s21_a13: x_21 - 0.9 x_27 >= -0.363121101156
s21_a14: 0.76861784425 x_21 - 0.275244971635 x_27 - 0.11557503868 x_31
 - 0.156652913873 x_42 - 0.121144920062 x_5 >= -0.226374495777
s21_a15: x_21 - 0.360532994924 x_27 - 0.294670050761 x_28
 - 0.244796954315 x_39 >= -0.111949574204
s21_a16: - 0.175122167925 x_19 + x_21 - 0.409617947579 x_27
 - 0.02998667259 x_33 - 0.157130164371 x_46 - 0.128143047534 x_47
 >= -0.219598063637
s21_a17: x_21 - 0.139118644068 x_26 - 0.23613559322 x_27 - 0.524745762712 x_47
 >= 0.496947806231
s21_a18: - 0.0268656716418 x_17 - 0.150203527815 x_18 + x_21
 - 0.337652645862 x_27 - 0.351696065129 x_49 - 0.0335820895522 x_8
 >= -0.602497184332
s21_a19: x_21 - 0.9 x_27 >= 0.13840397436
s21_a2: - 0.118173913043 x_14 - 0.281347826087 x_18 - 0.0661304347826 x_2
 + x_21 - 0.262956521739 x_27 - 0.171391304348 x_38 >= 0.0529589177936
s21_a3: x_21 - 0.401151315789 x_27 - 0.498848684211 x_8 >= -0.113949817055
s21_a4: x_21 - 0.0767799871713 x_26 - 0.439897370109 x_27
 - 0.193970493906 x_31 - 0.189352148813 x_48 >= 0.28689196941
s21_a5: x_21 - 0.293971962617 x_27 - 0.330140186916 x_44 - 0.275887850467 x_49
 >= 0.217010383079
s21_a6: x_21 - 0.9 x_27 >= -0.15285316635
s21_a7: x_21 - 0.9 x_27 >= 0.00177888500301
s21_a8: - 0.735520149953 x_12 + x_21 - 0.164479850047 x_27 >= 0.290384510922
s21_a9: x_21 - 0.231462140992 x_27 - 0.668537859008 x_41 >= 0.40417641833
s22_a0: - 0.628767123288 x_1 - 0.271232876712 x_15 + x_22 >= 0.222310811406
s22_a1: - 0.442290609137 x_15 - 0.236135786802 x_2 + 0.984581218274 x_22
 - 0.0385469543147 x_34 - 0.16760786802 x_37 >= 0.150009626144
s22_a10: - 0.433025984912 x_15 + x_22 - 0.466974015088 x_48 >= -0.260327275794
s22_a11: - 0.347833622184 x_15 - 0.552166377816 x_16 + x_22 >= 0.221711058392
s22_a12: - 0.00196220930233 x_0 - 0.189026162791 x_12 - 0.159265988372 x_15
 - 0.25835755814 x_17 + x_22 - 0.291388081395 x_45 >= 0.246261570454
s22_a13: - 0.168809272919 x_15 - 0.431981032666 x_18 + x_22
 - 0.00948366701791 x_24 - 0.0459957850369 x_32 - 0.24373024236 x_7
 >= -0.341062349152
s22_a14: - 0.251552795031 x_15 + x_22 - 0.648447204969 x_24 >= -0.569211889213
s22_a15: - 0.280147058824 x_15 + x_22 - 0.236764705882 x_29
 - 0.20612745098 x_36 - 0.0720588235294 x_38 - 0.104901960784 x_47
 >= 0.258616079066
s22_a16: - 0.9 x_15 + x_22 >= 0.312309447971
s22_a17: - 0.409090909091 x_15 + x_22 - 0.0963293310463 x_29
 - 0.192967409949 x_31 - 0.0453859348199 x_46 - 0.156226415094 x_6
 >= 0.0681981020206
s22_a18: - 0.9 x_15 + x_22 >= -0.811935023773
s22_a19: - 0.642317380353 x_14 - 0.257682619647 x_15 + x_22 >= -0.446990574114
s22_a2: - 0.9 x_15 + x_22 >= 0.347551438176
s22_a3: - 0.27619266055 x_15 - 0.320366972477 x_21 + x_22
 - 0.130871559633 x_32 - 0.172568807339 x_33 >= 0.320111302809
s22_a4: - 0.296695515342 x_15 + x_22 - 0.431235247836 x_28
 - 0.172069236821 x_5 >= -0.224718718613
s22_a5: - 0.402034883721 x_15 + x_22 - 0.252034883721 x_34
 - 0.245930232558 x_46 >= -0.475632414047
s22_a6: - 0.249487264307 x_0 - 0.299503804168 x_15 + x_22
 - 0.252762156798 x_42 - 0.0818723122726 x_44 - 0.0163744624545 x_46
 >= -0.358195329836
s22_a7: - 0.318795180723 x_15 + x_22 - 0.581204819277 x_44 >= 0.260169025899
s22_a8: - 0.134097421203 x_14 - 0.368767908309 x_15 + x_22
 - 0.211461318052 x_39 - 0.0799426934097 x_4 - 0.105730659026 x_40
 >= 0.375915487239
s22_a9: - 0.363811357074 x_15 - 0.267661212705 x_18 - 0.268527430221 x_2
 + x_22 >= 0.120792560951
s23_a0: - 0.310848708487 x_14 + x_23 - 0.333099630996 x_29
 - 0.256051660517 x_37 >= 0.35103872196
s23_a1: x_23 - 0.4442738043 x_29 - 0.249583150505 x_46 - 0.206143045195 x_47
 >= -0.446140846975
s23_a10: x_23 - 0.332382133995 x_24 - 0.428039702233 x_29
 - 0.103846153846 x_31 - 0.0357320099256 x_35 >= 0.342488911161
s23_a11: - 0.496510862409 x_2 + x_23 - 0.403489137591 x_29 >= -0.379299134205
s23_a12: 0.76025751073 x_23 - 0.0074678111588 x_24 - 0.285836909871 x_29
 - 0.135965665236 x_41 - 0.230987124464 x_5 >= -0.178588273033
s23_a13: - 0.260019890602 x_22 + x_23 - 0.377722526106 x_29
 - 0.109199403282 x_3 - 0.15305818001 x_9 >= 0.247756476664
s23_a14: - 0.164172583288 x_15 + x_23 - 0.00983069361005 x_28
 - 0.330311305298 x_29 - 0.13664664118 x_31 - 0.259038776625 x_4
 >= 0.103077677836
s23_a15: x_23 - 0.160273972603 x_29 - 0.739726027397 x_7 >= 0.077178845583
s23_a16: x_23 - 0.302071450015 x_29 - 0.213179225458 x_31
 - 0.0602521765236 x_46 - 0.0597117982588 x_8 - 0.264785349745 x_9
 >= 0.396730452631
s23_a17: - 0.309317531671 x_18 + x_23 - 0.221046178995 x_29
 - 0.255251328157 x_30 - 0.114384961177 x_40 >= -0.072998776643
s23_a18: x_23 - 0.432096403979 x_29 - 0.166641162969 x_30
 - 0.301262433053 x_35 >= 0.555582709299
s23_a19: x_23 - 0.306 x_29 - 0.594 x_43 >= -0.504845386567
s23_a2: x_23 - 0.9 x_29 >= 0.129243182346
s23_a3: - 0.331392604249 x_14 + x_23 - 0.350157356412 x_29
 - 0.218450039339 x_30 >= 0.182447119866
s23_a4: x_23 - 0.9 x_29 >= -0.296262660832
s23_a5: - 0.454952311079 x_21 + x_23 - 0.445047688921 x_29 >= -0.276981310278
s23_a6: x_23 - 0.9 x_29 >= -0.183159547147
s23_a7: x_23 - 0.410342717258 x_29 - 0.489657282742 x_42 >= 0.876502250103
s23_a8: - 0.11502627807 x_1 + x_23 - 0.26359292881 x_29 - 0.196727185858 x_37
 - 0.17436693741 x_41 - 0.150286669852 x_44 >= -0.299430753825
s23_a9: x_23 - 0.9 x_29 >= 0.489139034234
s24_a0: - 0.139326267979 x_16 - 0.140859197578 x_20 + x_24
 - 0.449148372445 x_33 - 0.0759651778955 x_35 - 0.094700984103 x_42
 >= 0.289751305316
s24_a1: x_24 - 0.175 x_33 - 0.725 x_40 >= 0.0778827726757
s24_a10: - 0.208469682387 x_14 + x_24 - 0.422136669875 x_33
 - 0.0912415784408 x_5 - 0.178152069297 x_6 >= -0.303135295812
s24_a11: x_24 - 0.9 x_33 >= -0.865872704754
s24_a12: - 0.252571860817 x_15 + x_24 - 0.268910741301 x_29
 - 0.378517397882 x_33 >= 0.253831022207
s24_a13: 0.479236641221 x_24 - 0.379236641221 x_33 >= 0.78940140389
s24_a14: - 0.571708185053 x_19 + x_24 - 0.328291814947 x_33
 >= 0.000402825280506
s24_a15: 0.788276038994 x_24 - 0.0540277065162 x_32 - 0.444689584402 x_33
 - 0.117521806054 x_37 - 0.0720369420215 x_39 >= 0.163984454583
s24_a16: x_24 - 0.0314917127072 x_25 - 0.4363851618 x_33 - 0.236543014996 x_37
 - 0.0130228887135 x_4 - 0.182557221784 x_8 >= 0.184189915398
s24_a17: x_24 - 0.704347826087 x_25 - 0.195652173913 x_33 >= 0.0386982257568
s24_a18: - 0.0702384639207 x_15 - 0.234685661195 x_16 - 0.136574790957 x_22
 + x_24 - 0.0117064106535 x_32 - 0.446794673273 x_33 >= 0.393468770187
s24_a19: x_24 - 0.702336448598 x_3 - 0.197663551402 x_33 >= -0.140582266065
s24_a2: x_24 - 0.9 x_33 >= 0.188147908483
s24_a3: - 0.0525751814725 x_13 + x_24 - 0.211545108884 x_25
 - 0.218700311096 x_32 - 0.417179398548 x_33 >= 0.210208294174
s24_a4: x_24 - 0.162621789194 x_27 - 0.055004428698 x_28 - 0.304517271922 x_33
 - 0.190124003543 x_41 - 0.187732506643 x_49 >= -0.210986969133
s24_a5: - 0.246020761246 x_23 + x_24 - 0.371107266436 x_33
 - 0.282871972318 x_6 >= 0.458544594608
s24_a6: - 0.108676207513 x_1 - 0.186762075134 x_14 + x_24
 - 0.0454830053667 x_31 - 0.293425760286 x_33 - 0.265652951699 x_9
 >= 0.456376457546
s24_a7: - 0.0725874125874 x_12 + x_24 - 0.404895104895 x_30
 - 0.422517482517 x_33 >= -0.087510094114
s24_a8: x_24 - 0.9 x_33 >= 0.285207723214
s24_a9: x_24 - 0.9 x_33 >= -0.416351512438
s25_a0: - 0.0777552571573 x_10 + x_25 - 0.145477577907 x_30
 - 0.387180136813 x_38 - 0.140917152268 x_40 - 0.148669875855 x_46
 >= 0.198602971033
s25_a1: - 0.228197031891 x_13 - 0.0395011051468 x_18 + x_25
 - 0.342721818756 x_38 - 0.044616356173 x_43 - 0.244963688033 x_45
 >= -0.357107076686
s25_a10: x_25 - 0.9 x_38 >= 0.776815223863
s25_a11: x_25 - 0.32315978456 x_38 - 0.57684021544 x_44 >= 0.117807719968
s25_a12: - 0.160975609756 x_19 + x_25 - 0.439024390244 x_38 - 0.3 x_43
 >= -0.112124840335
s25_a13: - 0.165591397849 x_14 + x_25 - 0.248387096774 x_38
 - 0.486021505376 x_40 >= 0.138290121831
s25_a14: - 0.684172661871 x_16 + x_25 - 0.189928057554 x_38
 - 0.0258992805755 x_44 >= 0.45178439457
s25_a15: x_25 - 0.446359223301 x_38 - 0.453640776699 x_4 >= -0.20294255276
s25_a16: x_25 - 0.465205913411 x_30 - 0.434794086589 x_38 >= 0.543445587823
s25_a17: x_25 - 0.291743119266 x_28 - 0.119571865443 x_35
 - 0.190214067278 x_36 - 0.164831804281 x_38 - 0.133639143731 x_47
 >= -0.213705412455
s25_a18: - 0.0702788844622 x_0 - 0.0652589641434 x_15 + x_25
 - 0.433864541833 x_38 - 0.18609561753 x_48 - 0.144501992032 x_8
 >= 0.0650074943692
s25_a19: x_25 - 0.345776566757 x_38 - 0.554223433243 x_49 >= 0.35539812733
s25_a2: x_25 - 0.363219284603 x_38 - 0.536780715397 x_42 >= -0.135776677523
s25_a3: - 0.332372093023 x_2 + x_25 - 0.248651162791 x_34
 - 0.318976744186 x_38 >= -0.0542964573558
s25_a4: x_25 - 0.0219306466729 x_26 - 0.424695407685 x_38
 - 0.303233364574 x_39 - 0.150140581068 x_6 >= -0.157249736344
s25_a5: - 0.205879828326 x_10 + x_25 - 0.251459227468 x_27
 - 0.442660944206 x_38 >= -0.347491803664
s25_a6: 0.851267897188 x_25 - 0.151992409867 x_28 - 0.371675004313 x_38
 - 0.104174573055 x_45 - 0.123425909953 x_47 >= -0.240937369694
s25_a7: - 0.102477876106 x_10 + x_25 - 0.413097345133 x_38
 - 0.384424778761 x_42 >= -0.434604424355
s25_a8: x_25 - 0.448689744419 x_38 - 0.210514396635 x_40 - 0.240795858945 x_44
 >= -0.14445669672
s25_a9: - 0.675 x_16 + x_25 - 0.225 x_38 >= 0.447226409787
s26_a0: x_26 - 0.193873517787 x_27 - 0.308596837945 x_44 - 0.397529644269 x_46
 >= -0.257134995234
s26_a1: - 0.351918899348 x_0 - 0.264590876177 x_11 + x_26
 - 0.283490224475 x_46 >= 0.37530437214
s26_a10: - 0.321061869241 x_17 + x_26 - 0.287889425186 x_33
 - 0.291048705573 x_46 >= -0.00592590394209
s26_a11: - 0.11191011236 x_13 - 0.296629213483 x_21 + x_26
 - 0.0522471910112 x_33 - 0.439213483146 x_46 >= 0.540572389582
s26_a12: x_26 - 0.9 x_46 >= 0.66832522669
s26_a13: x_26 - 0.26583011583 x_46 - 0.220656370656 x_8 - 0.413513513514 x_9
 >= -0.218879479338
s26_a14: - 0.181689069237 x_12 + x_26 - 0.116180573168 x_40
 - 0.224372305351 x_41 - 0.377758052244 x_46 >= -0.0614622448589
s26_a15: x_26 - 0.467456896552 x_35 - 0.432543103448 x_46 >= 0.716394857033
s26_a16: - 0.101305718145 x_10 - 0.379288608735 x_25 + x_26
 - 0.41940567312 x_46 >= -0.220116791052
s26_a17: - 0.0511691884457 x_13 - 0.288445667125 x_22 - 0.272764786795 x_23
 + x_26 - 0.287620357634 x_46 >= 0.345004685437
s26_a18: - 0.463005780347 x_13 + x_26 - 0.436994219653 x_46 >= -0.248010776906
s26_a19: - 0.608844065167 x_1 + x_26 - 0.102637703646 x_45
 - 0.168968192397 x_46 - 0.0195500387898 x_5 >= 0.357864805163
s26_a2: - 0.163675832127 x_20 + x_26 - 0.236179450072 x_42
 - 0.20492040521 x_46 - 0.29522431259 x_9 >= -0.0896178029509
s26_a3: x_26 - 0.28407079646 x_31 - 0.233628318584 x_35 - 0.382300884956 x_46
 >= 0.0341543386679
s26_a4: - 0.313967213115 x_10 - 0.36531147541 x_24 + x_26
 - 0.220721311475 x_46 >= 0.0791681661164
s26_a5: - 0.174806662701 x_13 - 0.0120464009518 x_20 - 0.0232897085068 x_24
 + x_26 - 0.25752528257 x_39 - 0.432331945271 x_46 >= -0.432761010674
s26_a6: x_26 - 0.9 x_46 >= -0.476386059201
s26_a7: x_26 - 0.212313527181 x_27 - 0.188419721871 x_35 - 0.126978508217 x_36
 - 0.052793931732 x_42 - 0.319494310999 x_46 >= -0.014627432837
s26_a8: - 0.483380884451 x_15 + x_26 - 0.416619115549 x_46 >= -0.0972595907589
s26_a9: x_26 - 0.9 x_46 >= -0.474014714165
s27_a0: - 0.156099585062 x_1 + x_27 - 0.498174273859 x_30
 - 0.245726141079 x_34 >= -0.230539117198
s27_a1: - 0.0235023041475 x_22 + x_27 - 0.128847926267 x_28
 - 0.431612903226 x_34 - 0.170322580645 x_46 - 0.145714285714 x_9
 >= -0.386045753236
s27_a10: x_27 - 0.9 x_34 >= -0.268056197186
s27_a11: x_27 - 0.297688751926 x_34 - 0.236209553159 x_41 - 0.04437596302 x_42
 - 0.00138674884438 x_45 - 0.320338983051 x_6 >= -0.0290379949983
s27_a12: x_27 - 0.9 x_34 >= -0.0703883458715
s27_a13: - 0.268837459634 x_2 + x_27 - 0.314854682454 x_34
 - 0.316307857912 x_40 >= 0.241144117885
s27_a14: - 0.336509580528 x_20 + x_27 - 0.351424132574 x_34
 - 0.212066286898 x_48 >= 0.0367725253443
s27_a15: - 0.120650313748 x_11 - 0.0523673702225 x_21 - 0.333713633771 x_26
 + x_27 - 0.280319452367 x_34 - 0.112949229892 x_6 >= -0.56077940425
s27_a16: x_27 - 0.0420591456736 x_29 - 0.164293537788 x_3
 - 0.261555312158 x_32 - 0.432092004381 x_34 >= 0.394859150861
s27_a17: x_27 - 0.275396278429 x_34 - 0.505513439008 x_45
 - 0.119090282564 x_46 >= 0.18961567798
s27_a18: - 0.087676056338 x_14 - 0.160563380282 x_22 + x_27
 - 0.251936619718 x_34 - 0.230809859155 x_43 - 0.169014084507 x_7
 >= 0.249462820399
s27_a19: x_27 - 0.455430410298 x_29 - 0.444569589702 x_34 >= -0.388088371192
s27_a2: - 0.214420062696 x_13 - 0.25039184953 x_22 + x_27
 - 0.140007836991 x_31 - 0.00881661442006 x_32 - 0.286363636364 x_34
 >= -0.163350452869
s27_a3: - 0.258023483366 x_24 + x_27 - 0.258023483366 x_34
 - 0.383953033268 x_37 >= 0.151303575193
s27_a4: - 0.460975609756 x_1 + x_27 - 0.439024390244 x_34 >= -0.184262592268
s27_a5: x_27 - 0.9 x_34 >= 0.65021705967
s27_a6: - 0.0454128440367 x_15 + x_27 - 0.23623853211 x_32
 - 0.190825688073 x_34 - 0.42752293578 x_48 >= 0.195183433325
s27_a7: x_27 - 0.122142857143 x_31 - 0.409537815126 x_34
 - 0.0614495798319 x_35 - 0.170735294118 x_4 - 0.136134453782 x_5
 >= -0.157717555778
s27_a8: - 0.0594081942337 x_15 - 0.103566009105 x_21 + x_27
 - 0.224203338392 x_33 - 0.301820940819 x_34 - 0.211001517451 x_37
 >= 0.083139341095
s27_a9: - 0.460117302053 x_21 + x_27 - 0.439882697947 x_34 >= 0.199492298816
s28_a0: x_28 - 0.223973941368 x_37 - 0.437394136808 x_39 - 0.238631921824 x_40
 >= 0.493183720951
s28_a1: - 0.0432 x_22 + x_28 - 0.4188 x_37 - 0.438 x_46 >= -0.651713997332
s28_a10: - 0.261577868852 x_0 - 0.193954918033 x_17 - 0.00860655737705 x_22
 + x_28 - 0.422028688525 x_37 - 0.0138319672131 x_46 >= -0.0160960032179
s28_a11: x_28 - 0.384966777409 x_37 - 0.264991694352 x_4 - 0.250041528239 x_47
 >= 0.12454132658
s28_a12: x_28 - 0.9 x_37 >= 0.67329606554
s28_a13: - 0.0971074380165 x_12 - 0.188429752066 x_24 - 0.227272727273 x_27
 + x_28 - 0.387190082645 x_37 >= 0.100876314626
s28_a14: - 0.195208070618 x_12 + x_28 - 0.00680958385876 x_34
 - 0.392118537201 x_37 - 0.136759142497 x_42 - 0.169104665826 x_44
 >= 0.459691610517
s28_a15: - 0.118784370478 x_14 - 0.143531114327 x_18 + x_28
 - 0.379276410999 x_37 - 0.258408104197 x_7 >= -0.24237074542
s28_a16: - 0.239107332625 x_18 - 0.0930924548353 x_26 + x_28
 - 0.175664187035 x_29 - 0.293304994687 x_37 - 0.0988310308183 x_46
 >= -0.165465474958
s28_a17: x_28 - 0.398156682028 x_37 - 0.501843317972 x_49 >= 0.314437425411
s28_a18: x_28 - 0.429545454545 x_37 - 0.470454545455 x_48 >= -0.487846147492
s28_a19: x_28 - 0.9 x_37 >= 0.950886808117
s28_a2: - 0.342922374429 x_16 - 0.386757990868 x_26 + x_28
 - 0.170319634703 x_37 >= 0.752552821915
s28_a3: - 0.0798856290403 x_15 + x_28 - 0.0962207856788 x_30
 - 0.198259572352 x_33 - 0.209671805072 x_35 - 0.315962207857 x_37
 >= 0.462659261232
s28_a4: - 0.470486656201 x_27 + x_28 - 0.429513343799 x_37 >= 0.00748933974397
s28_a5: x_28 - 0.9 x_37 >= 0.382927786839
s28_a6: - 0.28759936407 x_17 - 0.130206677266 x_21 + x_28 - 0.44213036566 x_37
 - 0.0400635930048 x_43 >= 0.418281078725
s28_a7: - 0.182323232323 x_12 - 0.252525252525 x_17 - 0.0449494949495 x_18
 + x_28 - 0.420202020202 x_37 >= 0.000493298593011
s28_a8: x_28 - 0.332210927573 x_37 - 0.290470139771 x_43 - 0.277318932656 x_6
 >= 0.0990167616494
s28_a9: x_28 - 0.9 x_37 >= 0.0405900693303
s29_a0: x_29 - 0.9 x_30 >= 0.775378221846
s29_a1: x_29 - 0.9 x_30 >= -0.101899590562
s29_a10: - 0.149439402029 x_19 + 0.919434063001 x_29 - 0.392899092365 x_30
 - 0.120768820075 x_40 - 0.156326748532 x_41 >= 0.209485446833
s29_a11: - 0.31018735363 x_15 - 0.21112412178 x_19 + x_29 - 0.2462529274 x_30
 - 0.119789227166 x_42 - 0.0126463700234 x_45 >= -0.0894408131964
s29_a12: - 0.0782608695652 x_10 - 0.0839065541856 x_11 - 0.14406229721 x_24
 + x_29 - 0.44795587281 x_30 - 0.14581440623 x_35 >= 0.507975485238
s29_a13: x_29 - 0.289884649512 x_30 - 0.610115350488 x_4 >= -0.540214463221
s29_a14: x_29 - 0.9 x_30 >= -0.312668663917
s29_a15: - 0.0938984629716 x_16 + x_29 - 0.365114112715 x_30
 - 0.364275733582 x_33 - 0.0767116907313 x_49 >= -0.432396705522
s29_a16: - 0.343551523007 x_10 + x_29 - 0.41587815943 x_30
 - 0.140570317563 x_6 >= 0.707078702429
s29_a17: x_29 - 0.419556566231 x_30 - 0.480443433769 x_36 >= 0.0463284081049
s29_a18: - 0.312975778547 x_15 + x_29 - 0.298442906574 x_30
 - 0.288581314879 x_8 >= 0.252933171237
s29_a19: - 0.256975228162 x_10 + x_29 - 0.298044328553 x_30
 - 0.344980443286 x_42 >= 0.703159644129
s29_a2: x_29 - 0.27223476298 x_30 - 0.62776523702 x_4 >= 0.400697658593
s29_a3: x_29 - 0.414875239923 x_30 - 0.231477927063 x_31 - 0.253646833013 x_40
 >= -0.151357704511
s29_a4: - 0.151260504202 x_13 + x_29 - 0.326585179526 x_30
 - 0.198013750955 x_35 - 0.0939648586707 x_45 - 0.130175706646 x_9
 >= -0.115881384093
s29_a5: - 0.137130559541 x_14 - 0.0950358680057 x_18 - 0.22700143472 x_20
 + x_29 - 0.440832137733 x_30 >= -0.158360322619
s29_a6: - 0.297279386118 x_15 - 0.269340774329 x_20 + x_29
 - 0.204987792117 x_30 - 0.128392047436 x_40 >= 0.629293659861
s29_a7: - 0.36787667827 x_20 + x_29 - 0.322227747389 x_30 - 0.209895574341 x_4
 >= 0.0923883700956
s29_a8: - 0.0985007496252 x_27 + x_29 - 0.258058470765 x_30
 - 0.211844077961 x_34 - 0.331596701649 x_38 >= 0.643469280801
s29_a9: - 0.1563080284 x_15 - 0.226843255052 x_19 + x_29 - 0.251174221737 x_30
 - 0.0248225013654 x_37 - 0.240851993446 x_5 >= 0.12559163134
s2_a0: x_2 >= 0
s2_a1: x_2 >= 0
s2_a10: x_2 >= 0
s2_a11: x_2 >= 0
s2_a12: x_2 >= 0
s2_a13: x_2 >= 0
s2_a14: x_2 >= 0
s2_a15: x_2 >= 0
s2_a16: x_2 >= 0
s2_a17: x_2 >= 0
s2_a18: x_2 >= 0
s2_a19: x_2 >= 0
s2_a2: x_2 >= 0
s2_a3: x_2 >= 0
s2_a4: x_2 >= 0
s2_a5: x_2 >= 0
s2_a6: x_2 >= 0
s2_a7: x_2 >= 0
s2_a8: x_2 >= 0
s2_a9: x_2 >= 0
s30_a0: - 0.9 x_3 + x_30 >= -0.964490695456
s30_a1: - 0.131294117647 x_11 - 0.199588235294 x_26 - 0.257294117647 x_3
 + x_30 - 0.311823529412 x_38 >= -0.00213326112371
s30_a10: - 0.0227184466019 x_2 - 0.286601941748 x_3 + x_30
 - 0.425970873786 x_33 - 0.164708737864 x_42 >= 0.648856379411
s30_a11: - 0.9 x_3 + x_30 >= 0.385581580951
s30_a12: - 0.340488841658 x_3 + x_30 - 0.559511158342 x_8 >= 0.0787403026073
s30_a13: - 0.129204265792 x_24 - 0.301230516817 x_29 - 0.297538966366 x_3
 + x_30 - 0.126620180476 x_31 - 0.0454060705496 x_43 >= 0.19649358403
s30_a14: - 0.9 x_3 + x_30 >= -0.0783791378492
s30_a15: - 0.403088803089 x_3 + x_30 - 0.496911196911 x_36 >= -0.487162365073
s30_a16: - 0.9 x_3 + x_30 >= -0.830150209181
s30_a17: - 0.9 x_3 + x_30 >= -0.175983259118
s30_a18: - 0.322747252747 x_10 - 0.15956043956 x_3 + x_30
 - 0.0451648351648 x_41 - 0.139450549451 x_45 - 0.233076923077 x_9
 >= 0.107019782805
s30_a19: - 0.236029411765 x_3 + x_30 - 0.663970588235 x_31 >= -0.819875018306
s30_a2: - 0.504364326376 x_16 - 0.194686907021 x_3 + x_30
 - 0.200948766603 x_35 >= -0.182372653075
s30_a3: - 0.0322262584328 x_18 - 0.429683445771 x_22 - 0.420342501297 x_3
 + x_30 - 0.0177477944992 x_46 >= 0.555274300462
s30_a4: - 0.254117647059 x_3 + x_30 - 0.452179930796 x_35
 - 0.193702422145 x_41 >= 0.0118550085528
s30_a5: - 0.14281592614 x_1 - 0.298095787651 x_3 + x_30 - 0.177611079054 x_38
 - 0.0233698788229 x_43 - 0.258107328332 x_47 >= -0.0736720304426
s30_a6: - 0.0208852599914 x_23 - 0.36162440911 x_3 + x_30
 - 0.146970348088 x_49 - 0.37051998281 x_5 >= -0.146017972719
s30_a7: - 0.0343324250681 x_25 - 0.385013623978 x_3 + x_30
 - 0.480653950954 x_32 >= 0.127384420479
s30_a8: - 0.177266636891 x_16 - 0.352523447968 x_3 + x_30
 - 0.370209915141 x_33 >= -0.075080264209
s30_a9: - 0.24490521327 x_3 + x_30 - 0.00924170616114 x_41
 - 0.293246445498 x_45 - 0.352606635071 x_5 >= 0.037032586447
s31_a0: - 0.443319838057 x_13 - 0.355060728745 x_14 - 0.087044534413 x_26
 + x_31 - 0.0145748987854 x_4 >= 0.585527340436
s31_a1: - 0.9 x_13 + x_31 >= -0.130349134267
s31_a10: - 0.9 x_13 + x_31 >= 0.32555752781
s31_a11: - 0.261613351878 x_13 - 0.190890125174 x_18 + x_31
 - 0.447496522949 x_48 >= -0.0979941391226
s31_a12: - 0.148685857322 x_12 - 0.437722152691 x_13 + x_31
 - 0.0984480600751 x_46 - 0.215143929912 x_49 >= -0.667190736624
s31_a13: - 0.260338445267 x_13 - 0.318402961396 x_27 - 0.321258593337 x_29
 + x_31 >= 0.385194838553
s31_a14: - 0.322406639004 x_13 - 0.577593360996 x_26 + x_31 >= 0.482238932053
s31_a15: - 0.444113875353 x_13 - 0.175891254168 x_17 - 0.116799179277 x_21
 + x_31 - 0.163195691203 x_7 >= 0.296241058799
s31_a16: - 0.220125180549 x_13 + x_31 - 0.0515647568609 x_37
 - 0.284689455946 x_47 - 0.343620606644 x_6 >= -0.0372006385564
s31_a17: - 0.156831683168 x_13 + x_31 - 0.387623762376 x_48
 - 0.13900990099 x_7 - 0.216534653465 x_8 >= 0.00467556152478
s31_a18: - 0.295975232198 x_12 - 0.393498452012 x_13 + x_31
 - 0.210526315789 x_7 >= 0.111885111145
s31_a19: - 0.9 x_13 + x_31 >= 0.0943896688833
s31_a2: - 0.260446247465 x_13 - 0.254969574037 x_21 - 0.019168356998 x_27
 + x_31 - 0.242494929006 x_32 - 0.122920892495 x_39 >= 0.350576912783
s31_a3: - 0.297900629811 x_13 + x_31 - 0.602099370189 x_42 >= -0.579693864218
s31_a4: - 0.291089108911 x_13 - 0.0861386138614 x_24 + x_31
 - 0.228712871287 x_35 - 0.294059405941 x_49 >= -0.347635236078
s31_a5: - 0.290948275862 x_13 - 0.360775862069 x_22 + x_31
 - 0.248275862069 x_9 >= -0.411665288013
s31_a6: - 0.437603847836 x_13 - 0.262090074333 x_22 + x_31
 - 0.200306077831 x_47 >= 0.373272620391
s31_a7: - 0.35643188528 x_1 - 0.260776043863 x_13 - 0.282792070856 x_30 + x_31
 >= -0.176001399052
s31_a8: - 0.152359271523 x_13 - 0.0953642384106 x_25 + x_31
 - 0.35761589404 x_32 - 0.215687086093 x_39 - 0.0789735099338 x_5
 >= -0.0845478523044
s31_a9: - 0.284722222222 x_13 + x_31 - 0.615277777778 x_7 >= 0.385400436054
s32_a0: x_32 >= 0
s32_a1: x_32 >= 0
s32_a10: x_32 >= 0
s32_a11: x_32 >= 0
s32_a12: x_32 >= 0
s32_a13: x_32 >= 0
s32_a14: x_32 >= 0
s32_a15: x_32 >= 0
s32_a16: x_32 >= 0
s32_a17: x_32 >= 0
s32_a18: x_32 >= 0
s32_a19: x_32 >= 0
s32_a2: x_32 >= 0
s32_a3: x_32 >= 0
s32_a4: x_32 >= 0
s32_a5: x_32 >= 0
s32_a6: x_32 >= 0
s32_a7: x_32 >= 0
s32_a8: x_32 >= 0
s32_a9: x_32 >= 0
s33_a0: - 0.0538013488657 x_12 - 0.162231759657 x_17 - 0.15119558553 x_18
 - 0.341293684856 x_21 + x_33 - 0.191477621091 x_37 >= -0.0282606342556
s33_a1: - 0.115822092599 x_15 - 0.428508931826 x_21 + 0.933065986147 x_33
 - 0.164053955523 x_4 - 0.124681006198 x_6 >= 0.316819787587
s33_a10: - 0.9 x_21 + x_33 >= 0.846215004539
s33_a11: - 0.214349112426 x_18 - 0.390088757396 x_21 + x_33
 - 0.0612426035503 x_43 - 0.234319526627 x_48 >= 0.235970524086
s33_a12: - 0.400444444444 x_21 - 0.0995555555556 x_22 - 0.0262222222222 x_26
 + x_33 - 0.373777777778 x_44 >= 0.00846157588301
s33_a13: - 0.343352601156 x_21 - 0.115751445087 x_30 + x_33
 - 0.0589595375723 x_39 - 0.0520231213873 x_46 - 0.329913294798 x_7
 >= -0.329498389076
s33_a14: - 0.0321766561514 x_10 - 0.298738170347 x_21 + x_33
 - 0.153943217666 x_38 - 0.125552050473 x_48 - 0.289589905363 x_8
 >= -0.0700573460592
s33_a15: - 0.259850543478 x_17 - 0.331080163043 x_21 - 0.0186480978261 x_27
 + x_33 - 0.241202445652 x_36 - 0.04921875 x_41 >= -0.372549935218
s33_a16: - 0.319333816075 x_19 - 0.324547429399 x_21 + x_33
 - 0.0619116582187 x_34 - 0.073642288197 x_48 - 0.12056480811 x_5
 >= 0.308923259183
s33_a17: - 0.115777525539 x_0 - 0.264245175936 x_19 - 0.218955732123 x_21
 + x_33 - 0.301021566402 x_40 >= 0.65451366874
s33_a18: - 0.112557781202 x_13 - 0.428043143297 x_21 - 0.181432973806 x_28
 + x_33 - 0.114637904468 x_41 - 0.0633281972265 x_47 >= -0.170956843555
s33_a19: - 0.212142857143 x_21 + x_33 - 0.687857142857 x_35 >= 0.0574855138415
s33_a2: - 0.0588730569948 x_18 - 0.30835492228 x_2 - 0.233743523316 x_21
 + x_33 - 0.285038860104 x_49 - 0.0139896373057 x_5 >= -0.391457295743
s33_a3: - 0.427295825771 x_21 + x_33 - 0.230961887477 x_40
 - 0.241742286751 x_47 >= 0.542755590888
s33_a4: - 0.0840370751802 x_12 - 0.236045314109 x_2 - 0.223995880536 x_20
 - 0.315756951596 x_21 - 0.0401647785788 x_30 + x_33 >= -0.311409676154
s33_a5: - 0.387171837709 x_21 + x_33 - 0.305011933174 x_41
 - 0.207816229117 x_49 >= -0.218135845201
s33_a6: - 0.59378238342 x_17 - 0.30621761658 x_21 + x_33 >= 0.503613307395
s33_a7: - 0.173349937733 x_13 - 0.272353673724 x_21 + x_33
 - 0.234246575342 x_44 - 0.2200498132 x_7 >= -0.0409961796822
s33_a8: - 0.302727272727 x_21 + x_33 - 0.597272727273 x_35 >= -0.0669980925968
s33_a9: - 0.099675994109 x_12 - 0.111605301915 x_19 - 0.333755522828 x_21
 + x_33 - 0.217908689249 x_34 - 0.1370544919 x_43 >= 0.0954953029382
s34_a0: x_34 >= 0
s34_a1: x_34 >= 0
s34_a10: x_34 >= 0
s34_a11: x_34 >= 0
s34_a12: x_34 >= 0
s34_a13: x_34 >= 0
s34_a14: x_34 >= 0
s34_a15: x_34 >= 0
s34_a16: x_34 >= 0
s34_a17: x_34 >= 0
s34_a18: x_34 >= 0
s34_a19: x_34 >= 0
s34_a2: x_34 >= 0
s34_a3: x_34 >= 0
s34_a4: x_34 >= 0
s34_a5: x_34 >= 0
s34_a6: x_34 >= 0
s34_a7: x_34 >= 0
s34_a8: x_34 >= 0
s34_a9: x_34 >= 0
s35_a0: - 0.442268041237 x_14 + x_35 - 0.457731958763 x_46 >= -0.209735273773
s35_a1: - 0.424840764331 x_10 - 0.235031847134 x_14 - 0.240127388535 x_23
 + x_35 >= -0.103906180904
s35_a10: - 0.213473684211 x_14 - 0.235894736842 x_19 + 0.715157894737 x_35
 - 0.00915789473684 x_44 - 0.156631578947 x_6 >= -0.391645312879
s35_a11: - 0.9 x_14 + x_35 >= 0.20427215809
s35_a12: - 0.293318485523 x_13 - 0.36280623608 x_14 - 0.233853006682 x_18
 - 0.0100222717149 x_3 + x_35 >= 0.0186614524098
s35_a13: - 0.158911508101 x_12 - 0.413917739925 x_14 - 0.0411300373909 x_33
 + x_35 - 0.286040714582 x_8 >= -0.0309137445455
s35_a14: - 0.369758064516 x_14 + x_35 - 0.189112903226 x_40
 - 0.341129032258 x_8 >= -0.236968614488
s35_a15: - 0.420889487871 x_14 + x_35 - 0.479110512129 x_44 >= 0.519087242826
s35_a16: - 0.372378804961 x_14 - 0.527621195039 x_20 + x_35 >= 0.286067999664
s35_a17: - 0.355003427005 x_14 - 0.267717614805 x_32 + x_35
 - 0.277278958191 x_42 >= 0.0859869573791
s35_a18: - 0.586689419795 x_10 - 0.313310580205 x_14 + x_35 >= -0.227974255371
s35_a19: - 0.9 x_14 + x_35 >= 0.136328020773
s35_a2: - 0.438586956522 x_14 - 0.104347826087 x_34 + x_35
 - 0.0489130434783 x_43 - 0.308152173913 x_8 >= 0.0585616063503
s35_a3: - 0.282042253521 x_14 - 0.617957746479 x_29 + x_35 >= 0.28898236819
s35_a4: - 0.436224489796 x_14 + x_35 - 0.463775510204 x_49 >= 0.621602752542
s35_a5: - 0.162644628099 x_10 - 0.15867768595 x_14 - 0.487933884298 x_24
 - 0.0907438016529 x_32 + x_35 >= -0.160319462994
s35_a6: - 0.138805970149 x_0 - 0.422962112514 x_14 + x_35
 - 0.143111366246 x_37 - 0.0676808266361 x_40 - 0.127439724455 x_6
 >= 0.14282264893
s35_a7: - 0.492597087379 x_13 - 0.407402912621 x_14 + x_35 >= 0.397457309537
s35_a8: - 0.0879310344828 x_12 - 0.246798029557 x_14 - 0.565270935961 x_20
 + x_35 >= 0.965630679941
s35_a9: - 0.189402985075 x_14 - 0.0544029850746 x_25 + x_35
 - 0.558805970149 x_37 - 0.0973880597015 x_46 >= -0.2218955477
s36_a0: - 0.100545663412 x_11 - 0.202642159678 x_30 - 0.0796094198736 x_33
 + x_36 - 0.136473291212 x_7 - 0.380729465824 x_8 >= 0.111488164106
s36_a1: - 0.477230769231 x_33 + x_36 - 0.422769230769 x_8 >= -0.297249399059
s36_a10: x_36 - 0.500269179004 x_42 - 0.399730820996 x_8 >= -0.113453205954
s36_a11: - 0.212860727729 x_15 - 0.057026348808 x_25 + x_36
 - 0.216813048934 x_8 - 0.413299874529 x_9 >= 0.368679493182
s36_a12: - 0.207809202195 x_18 - 0.0607851414099 x_25 + x_36
 - 0.0531869987336 x_38 - 0.352553820177 x_49 - 0.225664837484 x_8
 >= 0.466829651182
s36_a13: - 0.451954821894 x_27 + x_36 - 0.448045178106 x_8 >= -0.55989519959
s36_a14: - 0.20475 x_10 + x_36 - 0.0855 x_38 - 0.1580625 x_39 - 0.17690625 x_8
 - 0.27478125 x_9 >= 0.114767885753
s36_a15: x_36 - 0.9 x_8 >= -0.673782941019
s36_a16: x_36 - 0.199028763541 x_4 - 0.17011580127 x_42 - 0.245087784834 x_6
 - 0.285767650355 x_8 >= -0.221143322896
s36_a17: x_36 - 0.9 x_8 >= 0.876504173628
s36_a18: - 0.293206197855 x_14 - 0.225983313468 x_26 - 0.0790226460072 x_29
 + x_36 - 0.30178784267 x_8 >= 0.311585092773
s36_a19: x_36 - 0.9 x_8 >= 0.12147642976
s36_a2: x_36 - 0.683227344992 x_41 - 0.216772655008 x_8 >= -0.596746017566
s36_a3: - 0.0135702746365 x_2 + x_36 - 0.150726978998 x_37
 - 0.395476575121 x_41 - 0.340226171244 x_8 >= 0.0978953854741
s36_a4: x_36 - 0.9 x_8 >= 0.242758330574
s36_a5: x_36 - 0.9 x_8 >= 0.67566509873
s36_a6: - 0.605329949239 x_35 + x_36 - 0.294670050761 x_8 >= -0.576005107933
s36_a7: - 0.179918588874 x_14 - 0.159769335142 x_2 - 0.0138398914518 x_21
 + x_36 - 0.115196743555 x_6 - 0.431275440977 x_8 >= 0.163562542838
s36_a8: x_36 - 0.9 x_8 >= -0.0289420218055
s36_a9: x_36 - 0.494494382022 x_46 - 0.405505617978 x_8 >= 0.265868461526
s37_a0: - 0.9 x_0 + x_37 >= 0.910651993579
s37_a1: - 0.395323426573 x_0 - 0.276136363636 x_1 - 0.0204545454545 x_15
 - 0.204938811189 x_31 + x_37 - 0.00314685314685 x_46 >= -0.276575592096
s37_a10: - 0.363146150985 x_0 - 0.153291186315 x_10 - 0.170026031982 x_15
 - 0.0475269616958 x_16 - 0.166009669022 x_31 + x_37 >= -0.106028935433
s37_a11: - 0.9 x_0 + x_37 >= 0.648809907717
s37_a12: - 0.277335984095 x_0 - 0.0515308151093 x_1 - 0.148508946322 x_12
 - 0.310258449304 x_14 - 0.112365805169 x_30 + x_37 >= -0.0771836236287
s37_a13: - 0.27060518732 x_0 - 0.0648414985591 x_22 + x_37
 - 0.132708933718 x_39 - 0.431844380403 x_49 >= 0.163468675393
s37_a14: - 0.409486404834 x_0 - 0.490513595166 x_3 + x_37 >= -0.0574086457129
s37_a15: - 0.406506632975 x_0 + x_37 - 0.227416298168 x_49
 - 0.266077068857 x_5 >= 0.177514042077
s37_a16: - 0.322411953042 x_0 - 0.255176093917 x_24 + x_37
 - 0.100853788687 x_42 - 0.143436499466 x_46 - 0.0781216648879 x_6
 >= -0.210203786479
s37_a17: - 0.398514851485 x_0 - 0.476237623762 x_13 + x_37
 - 0.0252475247525 x_44 >= 0.328392202811
s37_a18: - 0.272841225627 x_0 - 0.404874651811 x_19 - 0.0848189415042 x_30
 + x_37 - 0.137465181058 x_44 >= -0.0253405040016
s37_a19: - 0.369501466276 x_0 - 0.463196480938 x_16 + x_37
 - 0.0673020527859 x_44 >= 0.17505798086
s37_a2: - 0.401721170396 x_0 - 0.0890705679862 x_20 - 0.0562822719449 x_26
 + x_37 - 0.156970740103 x_41 - 0.19595524957 x_9 >= -0.0629262879168
s37_a3: - 0.312040990606 x_0 - 0.587959009394 x_15 + x_37 >= 0.175554591549
s37_a4: - 0.295973154362 x_0 - 0.604026845638 x_21 + x_37 >= 0.646980587662
s37_a5: - 0.245454545455 x_0 - 0.654545454545 x_27 + x_37 >= -0.572453699656
s37_a6: - 0.402154101077 x_0 - 0.2057995029 x_1 - 0.232891466446 x_22 + x_37
 - 0.0591549295775 x_5 >= -0.0841490631655
s37_a7: - 0.9 x_0 + x_37 >= -0.548818346504
s37_a8: - 0.281189189189 x_0 - 0.108 x_17 - 0.0802702702703 x_28 + x_37
 - 0.430540540541 x_4 >= 0.205361234497
s37_a9: - 0.163210227273 x_0 - 0.3796875 x_14 - 0.0694602272727 x_28
 - 0.287642045455 x_3 + x_37 >= -0.445527212798
s38_a0: x_38 - 0.9 x_47 >= -0.623995349087
s38_a1: - 0.281324503311 x_14 - 0.203245033113 x_3 + x_38
 - 0.415430463576 x_47 >= 0.356177444175
s38_a10: x_38 - 0.558947368421 x_45 - 0.341052631579 x_47 >= 0.295138589299
s38_a11: - 0.730993618961 x_20 + x_38 - 0.169006381039 x_47
 >= -0.0364100817931
s38_a12: - 0.199076809453 x_15 - 0.111004431315 x_37 + x_38
 - 0.319387001477 x_40 - 0.270531757755 x_47 >= 0.00121167375714
s38_a13: - 0.343689320388 x_11 + 0.770631067961 x_38 - 0.326941747573 x_47
 >= -0.0160445747383
s38_a14: - 0.179861111111 x_10 + x_38 - 0.446064814815 x_47
 - 0.105092592593 x_5 - 0.168981481481 x_8 >= -0.221763520142
s38_a15: - 0.380718475073 x_13 + x_38 - 0.269868035191 x_47
 - 0.226979472141 x_5 - 0.0224340175953 x_9 >= 0.0848326368812
s38_a16: x_38 - 0.29387755102 x_47 - 0.60612244898 x_9 >= 0.255402452043
s38_a17: - 0.378631051753 x_10 - 0.102671118531 x_28 + x_38
 - 0.418697829716 x_47 >= 0.20714942795
s38_a18: x_38 - 0.386706689537 x_47 - 0.513293310463 x_5 >= 0.741822805658
s38_a19: x_38 - 0.9 x_47 >= 0.448119158437
s38_a2: - 0.179060542797 x_24 - 0.122129436326 x_33 + x_38
 - 0.169665970772 x_42 - 0.429144050104 x_47 >= 0.23100514015
s38_a3: x_38 - 0.9 x_47 >= 0.37443761786
s38_a4: - 0.273653686827 x_24 - 0.299378624689 x_36 + x_38
 - 0.326967688484 x_47 >= -0.265158010754
s38_a5: - 0.0395155185466 x_19 - 0.574337623013 x_36 + x_38
 - 0.286146858441 x_47 >= -0.132559219743
s38_a6: - 0.697920997921 x_3 + x_38 - 0.202079002079 x_47 >= -0.431917776643
s38_a7: - 0.029501571621 x_17 - 0.246924113157 x_27 + x_38
 - 0.241670408621 x_4 - 0.381903906601 x_47 >= 0.0579589344303
s38_a8: - 0.489130434783 x_24 + x_38 - 0.410869565217 x_47 >= -0.455018034235
s38_a9: - 0.121962616822 x_10 - 0.351468624833 x_12 - 0.120160213618 x_29
 + x_38 - 0.306408544726 x_47 >= -0.310291267264
s39_a0: - 0.522377622378 x_14 - 0.377622377622 x_22 + x_39 >= 0.548992275848
s39_a1: - 0.169389865564 x_12 - 0.440227507756 x_22 - 0.11354705274 x_24
 + x_39 - 0.17683557394 x_41 >= 0.389686301449
s39_a10: - 0.299226804124 x_1 - 0.359867452135 x_22 - 0.240905743741 x_28
 + x_39 >= -0.27911170721
s39_a11: - 0.15556978233 x_22 - 0.74443021767 x_37 + x_39 >= -0.354554635413
s39_a12: - 0.442192921582 x_22 + x_39 - 0.244829979181 x_46
 - 0.212977099237 x_48 >= 0.453896423491
s39_a13: - 0.27784831273 x_16 - 0.0267624457066 x_2 - 0.191546942867 x_22
 - 0.19545606415 x_3 - 0.208386234547 x_31 + x_39 >= 0.294516110553
s39_a14: - 0.26320754717 x_22 - 0.63679245283 x_24 + x_39 >= 0.486540076133
s39_a15: - 0.359131633356 x_22 + 0.587525844245 x_39 - 0.0186078566506 x_45
 - 0.109786354238 x_7 >= 0.0367195934546
s39_a16: - 0.192559629761 x_18 - 0.290922036312 x_22 - 0.238697045212 x_23
 - 0.0660021359915 x_36 + x_39 - 0.111819152723 x_41 >= -0.281387457496
s39_a17: - 0.272195121951 x_22 - 0.154756097561 x_26 - 0.473048780488 x_36
 + x_39 >= -0.524651479641
s39_a18: - 0.0724448897796 x_14 - 0.0198396793587 x_17 - 0.264228456914 x_22
 - 0.251903807615 x_27 + x_39 - 0.291583166333 x_42 >= -0.155097901161
s39_a19: - 0.37141959799 x_22 + x_39 - 0.0910175879397 x_4
 - 0.43756281407 x_44 >= 0.0751071239414
s39_a2: - 0.168987341772 x_22 - 0.140506329114 x_28 - 0.590506329114 x_29
 + x_39 >= 0.347222528564
s39_a3: - 0.734175334324 x_0 - 0.165824665676 x_22 + x_39 >= -0.591081381605
s39_a4: - 0.340492610837 x_22 - 0.559507389163 x_30 + x_39 >= -0.0212030138377
s39_a5: - 0.9 x_22 + x_39 >= -0.803425618245
s39_a6: - 0.9 x_22 + x_39 >= 0.31897372416
s39_a7: - 0.25409731114 x_15 - 0.0766325224072 x_21 - 0.171126760563 x_22
 - 0.372215108835 x_33 + x_39 - 0.0259282970551 x_7 >= 0.109444275583
s39_a8: - 0.0774945601492 x_13 - 0.375442959279 x_22 - 0.0912029841467 x_26
 - 0.251507615791 x_33 + x_39 - 0.104351880634 x_43 >= 0.295324978689
s39_a9: - 0.23265129683 x_1 - 0.227723342939 x_19 - 0.439625360231 x_22 + x_39
 >= 0.00415382981
s3_a0: - 0.152766393443 x_10 - 0.0199795081967 x_12 - 0.300922131148 x_18
 - 0.426331967213 x_25 + x_3 >= 0.0840275436422
s3_a1: - 0.438528138528 x_25 - 0.0155844155844 x_27 + x_3
 - 0.230735930736 x_33 - 0.215151515152 x_42 >= 0.303647315691
s3_a10: - 0.9 x_25 + x_3 >= 0.533170202658
s3_a11: - 0.525 x_24 - 0.375 x_25 + x_3 >= -0.0759976503838
s3_a12: - 0.210669569951 x_18 - 0.280729450191 x_25 - 0.408600979858 x_26
 + x_3 >= -0.077172380303
s3_a13: - 0.283082706767 x_20 - 0.056015037594 x_22 - 0.323684210526 x_25
 + x_3 - 0.237218045113 x_32 >= 0.271157415474
s3_a14: - 0.234782608696 x_25 - 0.665217391304 x_26 + x_3 >= -0.389734089885
s3_a15: - 0.299348887683 x_2 - 0.207542051004 x_25 + x_3 - 0.189473684211 x_33
 - 0.203635377103 x_5 >= -0.228559508243
s3_a16: - 0.238151658768 x_18 - 0.313507109005 x_24 - 0.232109004739 x_25
 + x_3 - 0.0838862559242 x_40 - 0.032345971564 x_9 >= 0.155635453255
s3_a17: - 0.0197802197802 x_17 - 0.348131868132 x_25 - 0.151813186813 x_26
 + 0.619725274725 x_3 >= -0.197205106182
s3_a18: - 0.170971184632 x_17 - 0.029295624333 x_22 - 0.410618996798 x_25
 - 0.163767342583 x_28 - 0.125346851654 x_29 + x_3 >= 0.605097309398
s3_a19: - 0.37032967033 x_25 - 0.111538461538 x_26 + x_3 - 0.273076923077 x_46
 - 0.145054945055 x_48 >= -0.564788732002
s3_a2: - 0.581632653061 x_18 - 0.318367346939 x_25 + x_3 >= -0.421456522219
s3_a3: - 0.363888888889 x_25 - 0.536111111111 x_27 + x_3 >= 0.156345118827
s3_a4: - 0.279185022026 x_2 - 0.286784140969 x_25 + x_3 - 0.0277533039648 x_30
 - 0.302643171806 x_37 - 0.00363436123348 x_45 >= -0.321561487465
s3_a5: - 0.208115942029 x_12 - 0.32231884058 x_25 + x_3 - 0.271014492754 x_32
 - 0.0985507246377 x_39 >= 0.0741517892572
s3_a6: - 0.10339715874 x_22 - 0.0250154416306 x_23 - 0.426096355775 x_25 + x_3
 - 0.101173563928 x_32 - 0.244317479926 x_7 >= 0.0394611995439
s3_a7: - 0.0416770963705 x_23 - 0.31576971214 x_25 + x_3 - 0.197121401752 x_41
 - 0.345431789737 x_43 >= -0.00278338133977
s3_a8: - 0.187651821862 x_15 - 0.0793811451706 x_24 - 0.329496818971 x_25
 + x_3 - 0.108530942741 x_49 - 0.194939271255 x_9 >= 0.0666374518806
s3_a9: - 0.111669505963 x_15 - 0.376149914821 x_25 + x_3 - 0.144378194208 x_30
 - 0.142078364566 x_32 - 0.125724020443 x_34 >= 0.07957135319
s40_a0: - 0.11269121813 x_11 - 0.252917847025 x_24 - 0.239660056657 x_25
 - 0.140736543909 x_38 + x_40 - 0.153994334278 x_7 >= 0.219555625663
s40_a1: - 0.595801937567 x_16 - 0.304198062433 x_24 + x_40 >= 0.238811639332
s40_a10: - 0.9 x_24 + x_40 >= 0.24378388537
s40_a11: - 0.245923801721 x_19 - 0.362064727571 x_21 - 0.0667349446948 x_23
 - 0.225276526014 x_24 + x_40 >= 0.0496446240163
s40_a12: - 0.9 x_24 + x_40 >= -0.337873202452
s40_a13: - 0.196875 x_0 - 0.246875 x_24 - 0.15625 x_38 + x_40 - 0.3 x_46
 >= -0.0648498989926
s40_a14: - 0.9 x_24 + x_40 >= -0.724099168271
s40_a15: - 0.253636363636 x_24 - 0.646363636364 x_36 + x_40
 >= -0.0200188700624
s40_a16: - 0.9 x_24 + x_40 >= -0.499032194072
s40_a17: - 0.712276519666 x_18 - 0.187723480334 x_24 + x_40 >= 0.407807331697
s40_a18: - 0.415275590551 x_24 + x_40 - 0.157039370079 x_42
 - 0.0277795275591 x_43 - 0.127275590551 x_45 - 0.17262992126 x_48
 >= -0.391412199165
s40_a19: - 0.153783912423 x_21 - 0.333698238934 x_24 + x_40
 - 0.22917658258 x_42 - 0.183341266064 x_8 >= 0.292511794607
s40_a2: - 0.263434163701 x_1 - 0.423576512456 x_13 - 0.212989323843 x_24
 + x_40 >= -0.429262520277
s40_a3: - 0.346103896104 x_24 + x_40 - 0.0811688311688 x_41
 - 0.472727272727 x_42 >= 0.882915201641
s40_a4: - 0.9 x_24 + x_40 >= 0.196751413366
s40_a5: - 0.9 x_24 + x_40 >= 0.391871808625
s40_a6: - 0.9 x_24 + x_40 >= -0.138455563908
s40_a7: - 0.9 x_24 + x_40 >= 0.121732149441
s40_a8: - 0.669230769231 x_10 - 0.230769230769 x_24 + x_40 >= 0.149770052339
s40_a9: - 0.268396946565 x_24 + 0.750381679389 x_40 - 0.381984732824 x_46
 >= 0.137134559902
s41_a0: - 0.0311778290993 x_2 - 0.249422632794 x_20 - 0.619399538106 x_27
 + x_41 >= 0.168011811442
s41_a1: - 0.152325581395 x_20 - 0.747674418605 x_3 + x_41 >= 0.583997415579
s41_a10: - 0.183993660856 x_20 - 0.123375594295 x_32 + x_41
 - 0.592630744849 x_46 >= -0.602822256109
s41_a11: - 0.185816326531 x_13 - 0.202653061224 x_20 - 0.242142857143 x_29
 + x_41 - 0.269387755102 x_8 >= 0.244557753442
s41_a12: - 0.0340010141988 x_10 - 0.227510141988 x_17 - 0.297794117647 x_20
 - 0.136688640974 x_24 - 0.204006085193 x_39 + x_41 >= 0.389870702418
s41_a13: - 0.300642398287 x_20 - 0.0635974304069 x_24 + x_41
 - 0.535760171306 x_5 >= -0.556801607781
s41_a14: - 0.217011128776 x_13 - 0.44546899841 x_20 - 0.237519872814 x_30
 + x_41 >= -0.686483070728
s41_a15: - 0.416265060241 x_20 - 0.351807228916 x_4 + x_41
 - 0.131927710843 x_6 >= -0.0596070167763
s41_a16: - 0.213698630137 x_15 - 0.301141552511 x_20 - 0.0659817351598 x_4
 + 0.904794520548 x_41 - 0.22397260274 x_9 >= -0.40835967838
s41_a17: - 0.334670292318 x_14 - 0.359755268525 x_20 + x_41
 - 0.205574439157 x_6 >= 0.352057708791
s41_a18: - 0.188165680473 x_20 - 0.711834319527 x_21 + x_41 >= 0.736507838853
s41_a19: - 0.0221744231521 x_14 - 0.310089949159 x_20 - 0.323464998045 x_22
 - 0.244270629644 x_28 + x_41 >= 0.161674522781
s41_a2: - 0.17027027027 x_20 + x_41 - 0.72972972973 x_44 >= 0.351652706732
s41_a3: - 0.9 x_20 + x_41 >= 0.923523407866
s41_a4: - 0.409641255605 x_20 - 0.168497757848 x_31 - 0.22466367713 x_34
 + x_41 - 0.0306053811659 x_44 - 0.0665919282511 x_46 >= 0.144530865355
s41_a5: - 0.393965517241 x_20 - 0.506034482759 x_26 + x_41 >= 0.586088523304
s41_a6: - 0.152800201816 x_17 - 0.182542885974 x_2 - 0.443642785066 x_20
 - 0.0301967709384 x_32 + x_41 - 0.0908173562059 x_42 >= 0.443903317991
s41_a7: - 0.35568143952 x_20 - 0.277407530823 x_21 - 0.064178607131 x_4 + x_41
 - 0.202732422526 x_45 >= 0.213774274185
s41_a8: - 0.575524475524 x_19 - 0.324475524476 x_20 + x_41 >= -0.0647290968964
s41_a9: - 0.176415362731 x_10 - 0.426827880512 x_20 - 0.0668278805121 x_31
 - 0.0732290184922 x_40 + x_41 - 0.156699857752 x_9 >= 0.200183120128
s42_a0: - 0.159653465347 x_19 - 0.210891089109 x_40 + x_42
 - 0.347153465347 x_45 - 0.182301980198 x_5 >= -0.0667687577503
s42_a1: - 0.0733873219771 x_14 - 0.150795867076 x_15 - 0.185981569394 x_16
 - 0.0472493716839 x_37 + x_42 - 0.442585869869 x_45 >= 0.757734112565
s42_a10: x_42 - 0.9 x_45 >= 0.7465560676
s42_a11: - 0.453559322034 x_23 + x_42 - 0.446440677966 x_45 >= -0.349595314107
s42_a12: - 0.199886104784 x_1 + x_42 - 0.361845102506 x_43
 - 0.338268792711 x_45 >= 0.210177355317
s42_a13: - 0.180171048464 x_16 - 0.0159645232816 x_37 + x_42
 - 0.35663604688 x_45 - 0.14025974026 x_49 - 0.206968641115 x_5
 >= -0.206009672476
s42_a14: - 0.159557392996 x_1 - 0.168093385214 x_27 - 0.0177285992218 x_31
 - 0.185384241245 x_36 + x_42 - 0.369236381323 x_45 >= 0.0317447193575
s42_a15: x_42 - 0.9 x_45 >= 0.774287068917
s42_a16: - 0.160735390676 x_25 - 0.0756401838477 x_28 - 0.181812212738 x_34
 - 0.129218647406 x_38 + x_42 - 0.352593565332 x_45 >= -0.0334944692963
s42_a17: x_42 - 0.9 x_45 >= 0.75534374704
s42_a18: x_42 - 0.9 x_45 >= 0.834921382288
s42_a19: - 0.0616438356164 x_20 - 0.107876712329 x_4 + 0.878673723537 x_42
 - 0.349408468244 x_45 - 0.259744707347 x_48 >= -0.378862046951
s42_a2: - 0.0572185430464 x_14 - 0.370728476821 x_31 + x_42
 - 0.26940397351 x_45 - 0.202649006623 x_5 >= 0.584302365334
s42_a3: - 0.156008287293 x_16 - 0.0270372928177 x_18 - 0.224067679558 x_35
 - 0.121512430939 x_37 + x_42 - 0.371374309392 x_45 >= -0.197991424638
s42_a4: - 0.231921331316 x_14 - 0.028139183056 x_24 - 0.359909228442 x_25
 + x_42 - 0.280030257186 x_45 >= 0.176940628601
s42_a5: - 0.197064025469 x_16 - 0.283657587549 x_22 + x_42
 - 0.405588963566 x_45 - 0.013689423417 x_49 >= 0.299865276063
s42_a6: x_42 - 0.52429245283 x_44 - 0.37570754717 x_45 >= 0.339559754706
s42_a7: - 0.577894736842 x_30 + x_42 - 0.322105263158 x_45 >= -0.147046571258
s42_a8: x_42 - 0.9 x_45 >= 0.913802886733
s42_a9: - 0.454228187919 x_18 + x_42 - 0.445771812081 x_45 >= 0.473054283337
s43_a0: - 0.182631711621 x_12 - 0.207814469372 x_21 - 0.154953365263 x_33
 - 0.137484245021 x_34 + x_43 - 0.217116208722 x_45 >= 0.234480398277
s43_a1: - 0.0328227571116 x_10 - 0.388621444201 x_12 + 0.521444201313 x_43
 >= 0.37592586927
s43_a10: - 0.9 x_12 + x_43 >= 0.00877074106688
s43_a11: - 0.9 x_12 + x_43 >= 0.167383469669
s43_a12: - 0.9 x_12 + x_43 >= 0.361749295757
s43_a13: - 0.255971659919 x_12 - 0.0596659919028 x_35 - 0.0792510121457 x_4
 + x_43 - 0.162145748988 x_44 - 0.342965587045 x_7 >= -0.138735969385
s43_a14: - 0.390477839335 x_12 - 0.281405817175 x_2 + x_43 - 0.22811634349 x_8
 >= 0.126427168369
s43_a15: - 0.412396236857 x_12 - 0.487603763143 x_20 + x_43 >= -0.883103227816
s43_a16: - 0.405200594354 x_12 - 0.494799405646 x_36 + x_43 >= -0.291314026513
s43_a17: - 0.320465890183 x_1 - 0.22612312812 x_12 - 0.353410981697 x_14
 + x_43 >= 0.212288797633
s43_a18: - 0.9 x_12 + x_43 >= 0.290286675601
s43_a19: - 0.9 x_12 + x_43 >= 0.500270342429
s43_a2: - 0.405313301576 x_12 - 0.300769512642 x_13 - 0.193917185782 x_31
 + x_43 >= -0.0323680445481
s43_a3: - 0.9 x_12 + x_43 >= 0.359934162502
s43_a4: - 0.11860259434 x_0 - 0.268514150943 x_12 - 0.230306603774 x_22
 - 0.125766509434 x_30 - 0.156810141509 x_4 + x_43 >= 0.231024786917
s43_a5: - 0.9 x_12 + x_43 >= -0.684987020125
s43_a6: - 0.9 x_12 + x_43 >= 0.288012329157
s43_a7: - 0.271909733917 x_1 - 0.356180532166 x_12 - 0.0203098686426 x_31
 - 0.251599865275 x_40 + x_43 >= 0.124671732129
s43_a8: - 0.0121745011836 x_10 - 0.347582008793 x_12 - 0.251707811972 x_14
 - 0.288535678052 x_24 + x_43 >= -0.348752725981
s43_a9: - 0.449132111861 x_12 + x_43 - 0.35843780135 x_47
 - 0.0924300867888 x_5 >= 0.30621685782
s44_a0: - 0.9 x_1 + x_44 >= -0.505477855751
s44_a1: - 0.209472259811 x_1 - 0.364140730717 x_3 - 0.326387009472 x_30 + x_44
 >= -0.0725304557149
s44_a10: - 0.9 x_1 + x_44 >= 0.810624936829
s44_a11: - 0.24076433121 x_1 - 0.65923566879 x_43 + x_44 >= -0.461412314575
s44_a12: - 0.431632653061 x_1 - 0.468367346939 x_28 + x_44 >= -0.0597180664174
s44_a13: - 0.9 x_1 + x_44 >= -0.706741756017
s44_a14: - 0.9 x_1 + x_44 >= -0.541384171204
s44_a15: - 0.369955156951 x_1 - 0.287219730942 x_19 - 0.242825112108 x_28
 + x_44 >= -0.180513905988
s44_a16: - 0.220662650602 x_1 - 0.252108433735 x_17 + x_44
 - 0.427228915663 x_5 >= -0.384291111995
s44_a17: - 0.212495685192 x_1 - 0.177390403866 x_43 + x_44
 - 0.0223679668623 x_46 - 0.24822229893 x_48 - 0.23952364515 x_6
 >= 0.255607727793
s44_a18: - 0.9 x_1 + x_44 >= 0.272409525865
s44_a19: - 0.248390064397 x_1 - 0.179668813247 x_17 - 0.060027598896 x_30
 - 0.411913523459 x_38 + x_44 >= -0.099130368736
s44_a2: - 0.9 x_1 + x_44 >= -0.230598837109
s44_a3: - 0.385169491525 x_1 - 0.0568220338983 x_35 - 0.104491525424 x_37
 - 0.185148305085 x_38 + 0.831631355932 x_44 >= -0.440492613263
s44_a4: - 0.0438904109589 x_0 - 0.416465753425 x_1 - 0.0564657534247 x_20
 - 0.149671232877 x_25 - 0.233506849315 x_3 + x_44 >= -0.57754023965
s44_a5: - 0.39754601227 x_1 + x_44 - 0.50245398773 x_49 >= 0.195717857208
s44_a6: - 0.3 x_1 - 0.6 x_36 + x_44 >= -0.329644768187
s44_a7: - 0.9 x_1 + x_44 >= -0.904231049996
s44_a8: - 0.180540540541 x_0 - 0.397297297297 x_1 - 0.0718918918919 x_17
 - 0.08 x_39 + x_44 - 0.17027027027 x_6 >= -0.196034319157
s44_a9: - 0.9 x_1 + x_44 >= 0.461048965398
s45_a0: - 0.0380534503391 x_22 - 0.267810131631 x_27 - 0.0107698444356 x_29
 - 0.41069006781 x_36 - 0.172676505784 x_38 + x_45 >= -0.203419416258
s45_a1: - 0.606629834254 x_19 - 0.293370165746 x_36 + x_45 >= 0.706546942764
s45_a10: - 0.284050917259 x_29 - 0.255073006365 x_36 - 0.218345189068 x_41
 - 0.0727817296893 x_42 + x_45 - 0.0697491576189 x_48 >= 0.485338635828
s45_a11: - 0.45 x_36 + x_45 - 0.45 x_47 >= 0.177575311413
s45_a12: - 0.266791744841 x_12 - 0.437757973734 x_36 - 0.195450281426 x_37
 + x_45 >= 0.439737187631
s45_a13: - 0.9 x_36 + x_45 >= 0.363064112847
s45_a14: - 0.216875460575 x_16 - 0.312380250553 x_36 - 0.0852247605011 x_4
 + x_45 - 0.285519528371 x_9 >= 0.448967641274
s45_a15: - 0.115112855741 x_16 - 0.235230618253 x_18 - 0.252011776251 x_25
 - 0.133954857704 x_29 - 0.163689892051 x_36 + x_45 >= 0.0524956724423
s45_a16: - 0.0674008810573 x_19 - 0.408370044053 x_23 - 0.42422907489 x_36
 + x_45 >= -0.271820470483
s45_a17: - 0.9 x_36 + x_45 >= 0.52372509942
s45_a18: - 0.587288135593 x_31 - 0.312711864407 x_36 + x_45 >= -0.527010686572
s45_a19: - 0.340963855422 x_18 - 0.294578313253 x_28 - 0.264457831325 x_36
 + x_45 >= 0.287889701842
s45_a2: - 0.145730686439 x_13 - 0.114733317388 x_15 - 0.0869648409471 x_21
 - 0.437192059316 x_36 + x_45 - 0.11537909591 x_6 >= 0.192686639763
s45_a3: - 0.146478873239 x_10 - 0.346478873239 x_23 - 0.407042253521 x_36
 + x_45 >= -0.323123383816
s45_a4: - 0.456356877323 x_28 - 0.443643122677 x_36 + x_45 >= 0.133396138001
s45_a5: - 0.544186046512 x_2 - 0.355813953488 x_36 + x_45 >= -0.575811742323
s45_a6: - 0.9 x_36 + x_45 >= -0.603040717057
s45_a7: - 0.177483124397 x_14 - 0.256027000964 x_36 - 0.204821600771 x_42
 + x_45 - 0.261668273867 x_49 >= -0.324909196002
s45_a8: - 0.513026444662 x_33 - 0.386973555338 x_36 + x_45 >= -0.440178113725
s45_a9: - 0.272161572052 x_18 - 0.34634279476 x_36 + x_45
 - 0.281495633188 x_49 >= -0.0710234055808
s46_a0: x_46 - 0.9 x_49 >= -0.452706209804
s46_a1: - 0.591674641148 x_14 + x_46 - 0.308325358852 x_49 >= 0.0378794010708
s46_a10: x_46 - 0.9 x_49 >= -0.581931213246
s46_a11: - 0.467796610169 x_21 + x_46 - 0.432203389831 x_49
 >= -0.0473371233451
s46_a12: - 0.119980818414 x_16 - 0.277653452685 x_35 + x_46
 - 0.298081841432 x_49 - 0.204283887468 x_8 >= 0.142344756772
s46_a13: - 0.292086330935 x_0 - 0.178417266187 x_23 - 0.164028776978 x_40
 + x_46 - 0.265467625899 x_49 >= 0.476361880778
s46_a14: - 0.0470474346563 x_14 - 0.595934172314 x_26 + x_46
 - 0.25701839303 x_49 >= -0.0697662948514
s46_a15: - 0.139741219963 x_23 - 0.229242144177 x_37 - 0.24820702403 x_42
 + x_46 - 0.28280961183 x_49 >= 0.0337754526358
s46_a16: - 0.208126533951 x_18 - 0.113389691846 x_35 + x_46
 - 0.295745841287 x_49 - 0.184565039542 x_5 - 0.0981728933733 x_8
 >= 0.166241706633
s46_a17: x_46 - 0.9 x_49 >= -0.330561732056
s46_a18: x_46 - 0.9 x_49 >= -0.673330105182
s46_a19: - 0.145083487941 x_11 - 0.114100185529 x_2 - 0.0755102040816 x_27
 - 0.171428571429 x_40 + x_46 - 0.39387755102 x_49 >= -0.0353721877251
s46_a2: - 0.223720930233 x_10 + x_46 - 0.422325581395 x_47
 - 0.253953488372 x_49 >= 0.380606457991
s46_a3: - 0.110544611819 x_19 - 0.135573580533 x_2 + x_46
 - 0.443221320973 x_49 - 0.210660486674 x_6 >= 0.377337772496
s46_a4: - 0.110289990645 x_34 - 0.257343311506 x_45 + x_46
 - 0.191955098223 x_47 - 0.340411599626 x_49 >= -0.217296600272
s46_a5: - 0.369533527697 x_16 - 0.138192419825 x_20 + x_46
 - 0.345918367347 x_49 - 0.0463556851312 x_9 >= -0.0337042488679
s46_a6: x_46 - 0.9 x_49 >= -0.164391470072
s46_a7: - 0.482987551867 x_41 + x_46 - 0.417012448133 x_49 >= 0.614311968434
s46_a8: - 0.610714285714 x_17 + x_46 - 0.289285714286 x_49 >= 0.195807487195
s46_a9: - 0.460049627792 x_3 + x_46 - 0.439950372208 x_49 >= -0.686966435353
s47_a0: - 0.431026581118 x_10 - 0.320485792851 x_33 - 0.148487626031 x_40
 + x_47 >= 0.364703526211
s47_a1: - 0.219186930091 x_10 - 0.274582066869 x_24 - 0.169262917933 x_3
 - 0.236968085106 x_33 + x_47 >= -0.145607102242
s47_a10: - 0.289703153989 x_10 - 0.560204081633 x_15 - 0.0500927643785 x_45
 + x_47 >= 0.351558827826
s47_a11: - 0.270833333333 x_10 - 0.629166666667 x_33 + x_47 >= 0.214043731287
s47_a12: - 0.138354898336 x_0 - 0.342975970425 x_10 - 0.212661737523 x_16
 - 0.206007393715 x_45 + x_47 >= 0.0506218279473
s47_a13: - 0.9 x_10 + x_47 >= -0.961562317579
s47_a14: - 0.404551920341 x_10 - 0.0662517780939 x_26 - 0.316536273115 x_45
 + x_47 - 0.11266002845 x_8 >= 0.685622024894
s47_a15: - 0.265550239234 x_10 - 0.439234449761 x_42 - 0.195215311005 x_44
 + x_47 >= -0.306440588896
s47_a16: - 0.377747844828 x_10 - 0.152262931034 x_35 - 0.369989224138 x_44
 + x_47 >= 0.66495848181
s47_a17: - 0.9 x_10 + x_47 >= -0.680043869602
s47_a18: - 0.434773218143 x_10 - 0.0207343412527 x_16 - 0.362203023758 x_32
 - 0.0822894168467 x_40 + x_47 >= -0.223774915985
s47_a19: - 0.391304347826 x_10 - 0.508695652174 x_36 + x_47
 >= -0.0212082828758
s47_a2: - 0.173926380368 x_10 - 0.726073619632 x_18 + x_47 >= -0.0399897979592
s47_a3: - 0.434424379233 x_10 - 0.247178329571 x_11 + x_47
 - 0.149661399549 x_6 - 0.0687358916479 x_9 >= 0.523241767362
s47_a4: - 0.443871436354 x_10 - 0.0500090793536 x_20 - 0.0933175957872 x_32
 - 0.156400944253 x_43 - 0.156400944253 x_45 + x_47 >= -0.283599916508
s47_a5: - 0.9 x_10 + x_47 >= 0.865937313077
s47_a6: - 0.9 x_10 + x_47 >= 0.56808707002
s47_a7: - 0.438188368502 x_10 - 0.357128152342 x_3 - 0.104683479156 x_40
 + x_47 >= -0.118796636298
s47_a8: - 0.9 x_10 + x_47 >= -0.615005959478
s47_a9: - 0.231281533804 x_10 - 0.142583249243 x_39 - 0.0932391523713 x_40
 + x_47 - 0.219172552977 x_49 - 0.213723511604 x_9 >= 0.329804992764
s48_a0: - 0.266440677966 x_24 - 0.230169491525 x_40 - 0.403389830508 x_43
 + x_48 >= -0.0912787210555
s48_a1: - 0.9 x_43 + x_48 >= -0.0762728572748
s48_a10: - 0.484577922078 x_0 - 0.191396103896 x_43 - 0.224025974026 x_44
 + x_48 >= -0.408468514123
s48_a11: - 0.9 x_43 + x_48 >= 0.11313596115
s48_a12: - 0.0075 x_15 - 0.006 x_2 - 0.4425 x_22 - 0.444 x_43 + x_48
 >= 0.389928736775
s48_a13: - 0.9 x_43 + x_48 >= 0.338818655499
s48_a14: - 0.211400153022 x_10 - 0.103978576894 x_3 - 0.0130833970926 x_30
 - 0.189709257842 x_40 - 0.381828615149 x_43 + x_48 >= -0.307912239902
s48_a15: - 0.337857900318 x_26 - 0.350265111347 x_39 - 0.211876988335 x_43
 + x_48 >= -0.116647674233
s48_a16: - 0.9 x_43 + x_48 >= -0.575762645366
s48_a17: - 0.739913232104 x_30 - 0.160086767896 x_43 + x_48 >= -0.384435260267
s48_a18: - 0.675700934579 x_20 - 0.224299065421 x_43 + x_48 >= 0.241406628909
s48_a19: - 0.307246376812 x_27 - 0.26268115942 x_35 - 0.029347826087 x_39
 - 0.300724637681 x_43 + x_48 >= 0.421005493739
s48_a2: - 0.9 x_43 + x_48 >= 0.511402355098
s48_a3: - 0.9 x_43 + x_48 >= -0.116711474452
s48_a4: - 0.125945945946 x_29 - 0.478378378378 x_34 - 0.295675675676 x_43
 + x_48 >= 0.433114889245
s48_a5: - 0.187774086379 x_30 - 0.499335548173 x_33 - 0.212890365449 x_43
 + x_48 >= -0.490771233108
s48_a6: - 0.249164677804 x_16 - 0.185262529833 x_34 - 0.399791169451 x_43
 + x_48 - 0.0657816229117 x_6 >= 0.0264834040092
s48_a7: - 0.23743315508 x_18 - 0.0818181818182 x_3 - 0.23550802139 x_40
 - 0.325026737968 x_43 + x_48 - 0.0202139037433 x_9 >= -0.409373519651
s48_a8: - 0.0285010555947 x_10 - 0.298311048557 x_15 - 0.256509500352 x_23
 - 0.316678395496 x_43 + x_48 >= -0.191765377649
s48_a9: - 0.142694300518 x_10 - 0.55585492228 x_35 - 0.163212435233 x_43
 + x_48 - 0.0382383419689 x_49 >= 0.287314964249
s49_a0: - 0.705154639175 x_32 - 0.194845360825 x_48 + x_49 >= -0.281060555548
s49_a1: - 0.464408866995 x_36 - 0.435591133005 x_48 + x_49 >= 0.228290560208
s49_a10: - 0.9 x_48 + x_49 >= 0.0207024017054
s49_a11: - 0.0227926078029 x_15 - 0.239014373717 x_18 - 0.190657084189 x_25
 - 0.161704312115 x_43 - 0.285831622177 x_48 + x_49 >= 0.195677123597
s49_a12: - 0.9 x_48 + x_49 >= -0.0481774245194
s49_a13: - 0.247079439252 x_11 - 0.0428446261682 x_15 - 0.101985981308 x_22
 - 0.142464953271 x_46 - 0.365625 x_48 + x_49 >= -0.057725532648
s49_a14: - 0.579545454545 x_4 - 0.320454545455 x_48 + x_49 >= -0.144070600141
s49_a15: - 0.669292389853 x_11 - 0.230707610147 x_48 + x_49 >= 0.219516349966
s49_a16: - 0.157919254658 x_25 - 0.406677018634 x_34 - 0.335403726708 x_48
 + x_49 >= -0.101131897816
s49_a17: - 0.10425 x_3 - 0.19575 x_4 - 0.277125 x_43 - 0.322875 x_48 + x_49
 >= 0.287168821672
s49_a18: - 0.9 x_48 + x_49 >= 0.871133770931
s49_a19: - 0.9 x_48 + x_49 >= -0.294104317046
s49_a2: - 0.476917177914 x_42 - 0.423082822086 x_48 + x_49 >= 0.339137012923
s49_a3: - 0.258 x_10 - 0.0902857142857 x_13 - 0.170285714286 x_16
 - 0.381428571429 x_48 + x_49 >= -0.227104439978
s49_a4: - 0.308980674498 x_14 - 0.26328154604 x_30 - 0.311708980674 x_48
 + x_49 - 0.0160287987874 x_7 >= -0.486950250275
s49_a5: - 0.227511160714 x_27 - 0.0703125 x_33 - 0.234040178571 x_4
 - 0.255133928571 x_48 + x_49 - 0.113002232143 x_7 >= -0.060397951414
s49_a6: - 0.695108184384 x_4 - 0.204891815616 x_48 + x_49 >= -0.615429551487
s49_a7: - 0.413531114327 x_16 - 0.186903039074 x_41 - 0.137409551375 x_45
 - 0.162156295224 x_48 + x_49 >= -0.310560831309
s49_a8: - 0.167671232877 x_10 - 0.138575342466 x_23 - 0.116876712329 x_28
 - 0.184438356164 x_47 - 0.292438356164 x_48 + x_49 >= -0.47505067579
s49_a9: - 0.199931436407 x_15 - 0.0546109016112 x_21 - 0.200857044909 x_37
 - 0.389989715461 x_48 + x_49 - 0.0546109016112 x_9 >= 0.313001000096
s4_a0: - 0.378947368421 x_19 - 0.135849056604 x_23 + x_4 - 0.385203574975 x_45
 >= -0.377248614832
s4_a1: - 0.27509765625 x_19 - 0.62490234375 x_37 + x_4 >= 0.198850886401
s4_a10: - 0.9 x_19 + x_4 >= -0.0174960294196
s4_a11: - 0.0337320574163 x_13 - 0.405502392344 x_19 - 0.0789473684211 x_3
 - 0.232894736842 x_32 + x_4 - 0.148923444976 x_40 >= 0.131269998034
s4_a12: - 0.429253567508 x_0 - 0.384796926454 x_19 + x_4 - 0.0859495060373 x_6
 >= 0.202548755942
s4_a13: - 0.433576642336 x_19 - 0.466423357664 x_33 + x_4 >= 0.13960249413
s4_a14: - 0.9 x_19 + x_4 >= -0.652010185872
s4_a15: - 0.9 x_19 + x_4 >= 0.77189650306
s4_a16: - 0.9 x_19 + x_4 >= 0.322729207351
s4_a17: - 0.9 x_19 + x_4 >= 0.0924787238246
s4_a18: - 0.9 x_19 + x_4 >= 0.613615614453
s4_a19: - 0.423131170663 x_19 + x_4 - 0.0968970380818 x_40
 - 0.379971791255 x_8 >= 0.301048651709
s4_a2: - 0.260284463895 x_19 + x_4 - 0.275382932166 x_42 - 0.30295404814 x_44
 - 0.0613785557987 x_49 >= -0.136721603098
s4_a3: - 0.357688408246 x_19 - 0.302940182494 x_21 - 0.0882054748226 x_34
 + x_4 - 0.151165934437 x_41 >= 0.417132048395
s4_a4: - 0.0375579598145 x_16 - 0.212828438949 x_17 - 0.411282843895 x_19
 - 0.0255023183926 x_33 + x_4 - 0.212828438949 x_6 >= -0.474202843316
s4_a5: - 0.9 x_19 + x_4 >= 0.215052616255
s4_a6: - 0.9 x_19 + x_4 >= -0.99752230729
s4_a7: - 0.366055045872 x_1 - 0.18880733945 x_14 - 0.345137614679 x_19 + x_4
 >= 0.371836949783
s4_a8: - 0.9 x_19 + x_4 >= -0.0402113814737
s4_a9: - 0.477931034483 x_11 - 0.422068965517 x_19 + x_4 >= -0.0501432574194
s5_a0: - 0.326833631485 x_27 - 0.375134168157 x_39 - 0.103577817531 x_40
 - 0.0944543828265 x_47 + x_5 >= -0.274460474605
s5_a1: - 0.330434782609 x_39 - 0.569565217391 x_46 + x_5 >= 0.432231032088
s5_a10: - 0.163137472284 x_33 - 0.472450110865 x_37 - 0.264412416851 x_39
 + x_5 >= -0.336921418122
s5_a11: - 0.114061358656 x_13 - 0.196895544193 x_32 - 0.337253469686 x_39
 + 0.910591672754 x_5 - 0.162381300219 x_8 >= -0.241002471724
s5_a12: - 0.496923076923 x_37 - 0.403076923077 x_39 + x_5 >= 0.714748225203
s5_a13: - 0.675456389452 x_34 - 0.224543610548 x_39 + x_5 >= -0.13248916427
s5_a14: - 0.393700088731 x_39 - 0.319432120674 x_44 - 0.186867790594 x_45
 + x_5 >= 0.0475758819245
s5_a15: - 0.554132231405 x_24 - 0.345867768595 x_39 + x_5 >= 0.0377907018642
s5_a16: - 0.128740675735 x_22 - 0.449802544976 x_39 + x_5 - 0.321456779289 x_7
 >= -0.163207287003
s5_a17: - 0.179544975774 x_11 - 0.189214240573 x_13 - 0.142763850853 x_31
 - 0.260690962713 x_39 - 0.127785970086 x_48 + x_5 >= -0.117736819784
s5_a18: - 0.375 x_39 + x_5 - 0.525 x_7 >= -0.243764848599
s5_a19: - 0.222842975207 x_24 - 0.229090909091 x_29 - 0.440330578512 x_39
 + x_5 - 0.00773553719008 x_7 >= -0.269403889086
s5_a2: - 0.194273984443 x_17 - 0.157908383751 x_27 - 0.434442523768 x_39 + x_5
 - 0.113375108038 x_8 >= -0.135846177975
s5_a3: - 0.0767918088737 x_1 - 0.240148929569 x_22 - 0.38423828731 x_39 + x_5
 - 0.198820974248 x_6 >= 0.248288211417
s5_a4: - 0.260710808179 x_30 - 0.329503407984 x_39 - 0.309785783836 x_4 + x_5
 >= 0.449391450642
s5_a5: - 0.9 x_39 + x_5 >= -0.673890342512
s5_a6: - 0.9 x_39 + x_5 >= -0.923512538204
s5_a7: - 0.9 x_39 + x_5 >= -0.449940105785
s5_a8: - 0.216272261527 x_12 - 0.19848743596 x_24 - 0.0717979995121 x_29
 - 0.413442303001 x_39 + x_5 >= 0.131309799299
s5_a9: - 0.180575868373 x_23 - 0.0577925045704 x_24 - 0.19168190128 x_31
 - 0.361357404022 x_39 + x_5 - 0.108592321755 x_6 >= 0.023700047592
s6_a0: - 0.0251360174102 x_18 - 0.291512513602 x_27 - 0.222306855277 x_44
 - 0.0763873775843 x_5 + x_6 - 0.284657236126 x_8 >= 0.161527312014
s6_a1: - 0.0833648393195 x_0 - 0.264555765595 x_28 - 0.261153119093 x_38
 - 0.290926275992 x_44 + x_6 >= -0.129948527197
s6_a10: - 0.0268421052632 x_27 - 0.439473684211 x_35 - 0.333157894737 x_44
 - 0.100526315789 x_46 + x_6 >= 0.681429588818
s6_a11: - 0.0676202452059 x_10 - 0.179377554228 x_23 - 0.0512103112229 x_26
 - 0.417038667086 x_44 + x_6 - 0.184753222257 x_9 >= -0.560950230438
s6_a12: - 0.9 x_44 + x_6 >= -0.61330813097
s6_a13: - 0.22553699284 x_42 - 0.445704057279 x_44 - 0.228758949881 x_46 + x_6
 >= -0.514717235058
s6_a14: - 0.127732463295 x_18 - 0.117944535073 x_32 - 0.220717781403 x_35
 - 0.121615008157 x_38 - 0.311990212072 x_44 + x_6 >= -0.560432479641
s6_a15: - 0.0754934210526 x_16 - 0.434210526316 x_44 - 0.390296052632 x_5
 + x_6 >= 0.6114861084
s6_a16: - 0.0373170731707 x_15 - 0.360548780488 x_32 - 0.349573170732 x_38
 - 0.15256097561 x_44 + x_6 >= -0.357725450193
s6_a17: - 0.405918367347 x_0 - 0.208163265306 x_44 + x_6 - 0.285918367347 x_9
 >= 0.508559887369
s6_a18: - 0.468222374743 x_4 - 0.277968428277 x_44 + x_6 - 0.15380919698 x_9
 >= 0.172497167778
s6_a19: - 0.580591497227 x_26 - 0.116451016636 x_29 - 0.202957486137 x_44
 + x_6 >= 0.127004626751
s6_a2: - 0.9 x_44 + x_6 >= -0.698035017231
s6_a3: - 0.154302477184 x_13 - 0.142764015645 x_34 - 0.0436114732725 x_38
 - 0.433376792699 x_44 + 0.874054758801 x_6 >= -0.622452023737
s6_a4: - 0.209620253165 x_39 - 0.161392405063 x_43 - 0.31253164557 x_44
 - 0.0846835443038 x_46 - 0.131772151899 x_49 + x_6 >= -0.312174005335
s6_a5: - 0.0782012195122 x_21 - 0.373170731707 x_34 - 0.44862804878 x_44 + x_6
 >= 0.311828486577
s6_a6: - 0.596657381616 x_20 - 0.112813370474 x_26 - 0.190529247911 x_44 + x_6
 >= -0.609480808528
s6_a7: - 0.468493150685 x_20 - 0.431506849315 x_44 + x_6 >= 0.533129001946
s6_a8: - 0.420291869354 x_1 - 0.0525364836692 x_25 - 0.183252258513 x_28
 - 0.243919388464 x_44 + x_6 >= -0.164426079784
s6_a9: - 0.9 x_44 + x_6 >= -0.877066540694
s7_a0: - 0.711940298507 x_37 - 0.188059701493 x_41 + x_7 >= -0.0508788697673
s7_a1: - 0.279449423816 x_17 - 0.208866837388 x_27 - 0.163060179257 x_41
 - 0.248623559539 x_6 + x_7 >= -0.226694322235
s7_a10: - 0.179098873592 x_27 - 0.323279098874 x_33 - 0.397622027534 x_41
 + x_7 >= -0.606412666963
s7_a11: - 0.262081005587 x_11 - 0.0666201117318 x_3 - 0.326815642458 x_41
 - 0.244483240223 x_5 + x_7 >= 0.593350402047
s7_a12: - 0.511428571429 x_30 - 0.388571428571 x_41 + x_7 >= 0.340849976558
s7_a13: - 0.0592042440318 x_18 - 0.0463129973475 x_27 - 0.429230769231 x_41
 - 0.36525198939 x_48 + x_7 >= 0.440576721048
s7_a14: - 0.9 x_41 + x_7 >= 0.490423216459
s7_a15: - 0.0448207171315 x_11 - 0.26937250996 x_29 - 0.152838645418 x_41
 - 0.43296812749 x_5 + x_7 >= 0.740662180609
s7_a16: - 0.207142857143 x_41 - 0.692857142857 x_43 + x_7 >= 0.503635047665
s7_a17: - 0.9 x_41 + x_7 >= 0.23907181571
s7_a18: - 0.0994086589229 x_15 - 0.11651531151 x_22 - 0.164604012672 x_31
 - 0.0765997888068 x_37 - 0.442872228089 x_41 + x_7 >= -0.363851354247
s7_a19: - 0.134285714286 x_34 - 0.445714285714 x_41 - 0.32 x_44 + x_7
 >= -0.205431126314
s7_a2: - 0.0850230414747 x_4 - 0.157603686636 x_41 + x_7 - 0.657373271889 x_9
 >= -0.490029592239
s7_a3: - 0.735576923077 x_25 - 0.164423076923 x_41 + x_7 >= 0.34675374744
s7_a4: - 0.9 x_41 + x_7 >= 0.613832314927
s7_a5: - 0.155426458938 x_21 - 0.188698177977 x_23 - 0.226010034328 x_33
 - 0.317507261685 x_41 - 0.0123580670716 x_49 + x_7 >= 0.234696187618
s7_a6: - 0.142219743447 x_26 - 0.103569436698 x_36 - 0.414612381484 x_41
 - 0.135359732292 x_48 - 0.104238706079 x_49 + x_7 >= 0.0494052951737
s7_a7: - 0.9 x_41 + x_7 >= -0.559816848218
s7_a8: - 0.367228915663 x_29 - 0.346265060241 x_38 - 0.186506024096 x_41 + x_7
 >= -0.397398154248
s7_a9: - 0.222657411998 x_16 - 0.434159643034 x_41 - 0.243182944968 x_48 + x_7
 >= -0.70929901974
s8_a0: - 0.261894510226 x_16 - 0.28256189451 x_34 - 0.261571582347 x_6
 + 0.906027987083 x_8 >= -0.59808723874
s8_a1: - 0.9 x_6 + x_8 >= -0.104237532228
s8_a10: - 0.318565644881 x_10 - 0.263909774436 x_28 - 0.0530942741469 x_4
 - 0.051012145749 x_42 - 0.213418160787 x_6 + x_8 >= -0.41590529978
s8_a11: - 0.58064516129 x_43 - 0.31935483871 x_6 + x_8 >= -0.059141251191
s8_a12: - 0.9 x_6 + x_8 >= -0.781739956678
s8_a13: - 0.161958997722 x_38 - 0.35979498861 x_6 - 0.378246013667 x_7 + x_8
 >= 0.237113766798
s8_a14: - 0.9 x_6 + x_8 >= 0.720607147787
s8_a15: - 0.295995728777 x_32 - 0.035557928457 x_38 - 0.13021890016 x_39
 - 0.418045915643 x_6 - 0.0201815269621 x_7 + x_8 >= 0.277733535177
s8_a16: - 0.9 x_6 + x_8 >= 0.250602024846
s8_a17: - 0.156066613799 x_0 - 0.23695479778 x_28 - 0.0942109436955 x_39
 - 0.334972244251 x_6 + 0.922204599524 x_8 >= 0.14746715611
s8_a18: - 0.9 x_6 + x_8 >= 0.243697017999
s8_a19: - 0.9 x_6 + x_8 >= 0.484889617298
s8_a2: - 0.483123877917 x_45 - 0.416876122083 x_6 + x_8 >= -0.611130654386
s8_a3: - 0.194646098004 x_20 - 0.0985480943739 x_35 - 0.264609800363 x_44
 - 0.34219600726 x_6 + x_8 >= 0.0475183365272
s8_a4: - 0.19015918958 x_19 - 0.123408104197 x_36 - 0.0993125904486 x_47
 - 0.449674384949 x_6 + x_8 - 0.0374457308249 x_9 >= 0.371010119734
s8_a5: - 0.170809248555 x_11 - 0.0942196531792 x_33 - 0.0196531791908 x_45
 - 0.204046242775 x_46 - 0.411271676301 x_6 + x_8 >= -0.412776621776
s8_a6: - 0.9 x_6 + x_8 >= -0.367764816542
s8_a7: - 0.0465240641711 x_23 - 0.233155080214 x_36 - 0.419786096257 x_6
 - 0.072192513369 x_7 + x_8 - 0.128342245989 x_9 >= -0.261138170435
s8_a8: - 0.158934563758 x_12 - 0.136661073826 x_3 - 0.115897651007 x_32
 - 0.237458053691 x_38 - 0.251048657718 x_6 + x_8 >= -0.273449484058
s8_a9: - 0.186596385542 x_38 - 0.360542168675 x_39 - 0.352861445783 x_6 + x_8
 >= 0.0750707274474
s9_a0: - 0.353966480447 x_3 - 0.347932960894 x_35 - 0.198100558659 x_39 + x_9
 >= 0.0708551634104
s9_a1: - 0.9 x_35 + x_9 >= -0.985854605242
s9_a10: - 0.9 x_35 + x_9 >= 0.194098289646
s9_a11: - 0.0620982986767 x_17 - 0.359829867675 x_35 - 0.478071833648 x_42
 + x_9 >= -0.0721168500884
s9_a12: - 0.272727272727 x_35 - 0.627272727273 x_6 + x_9 >= 0.204493469172
s9_a13: - 0.291187122736 x_3 - 0.241931589537 x_35 - 0.328853118712 x_37
 - 0.0380281690141 x_7 + x_9 >= -0.125374813858
s9_a14: - 0.130997304582 x_10 - 0.135579514825 x_12 - 0.155795148248 x_16
 - 0.234501347709 x_22 - 0.243126684636 x_35 + x_9 >= -0.190011555998
s9_a15: - 0.502793296089 x_19 - 0.397206703911 x_35 + x_9 >= 0.02215248198
s9_a16: - 0.642857142857 x_29 - 0.187714285714 x_35 - 0.0694285714286 x_49
 + x_9 >= 0.0891864610519
s9_a17: - 0.313526011561 x_12 - 0.208092485549 x_32 - 0.37838150289 x_35 + x_9
 >= -0.719015378601
s9_a18: - 0.395073529412 x_35 - 0.504926470588 x_36 + x_9 >= 0.0722825148637
s9_a19: - 0.116514522822 x_21 - 0.153858921162 x_35 + 0.370373443983 x_9
 >= -0.0242986489417
s9_a2: - 0.338988326848 x_35 - 0.561011673152 x_4 + x_9 >= -0.608774486618
s9_a3: - 0.401020408163 x_35 - 0.498979591837 x_39 + x_9 >= -0.144557021443
s9_a4: - 0.9 x_35 + x_9 >= 0.524264200709
s9_a5: - 0.9 x_35 + x_9 >= 0.771943924921
s9_a6: - 0.9 x_35 + x_9 >= 0.35234602657
s9_a7: - 0.50308988764 x_14 - 0.39691011236 x_35 + x_9 >= -0.282250088165
s9_a8: - 0.9 x_35 + x_9 >= -0.950803768008
s9_a9: - 0.610927152318 x_12 - 0.289072847682 x_35 + x_9 >= -0.110026973736
Bounds
 x_0 free
 x_1 free
 x_10 free
 x_11 free
 x_12 free
 x_13 free
 x_14 free
 x_15 free
 x_16 free
 x_17 free
 x_18 free
 x_19 free
 x_2 free
 x_20 free
 x_21 free
 x_22 free
 x_23 free
 x_24 free
 x_25 free
 x_26 free
 x_27 free
 x_28 free
 x_29 free
 x_3 free
 x_30 free
 x_31 free
 x_32 free
 x_33 free
 x_34 free
 x_35 free
 x_36 free
 x_37 free
 x_38 free
 x_39 free
 x_4 free
 x_40 free
 x_41 free
 x_42 free
 x_43 free
 x_44 free
 x_45 free
 x_46 free
 x_47 free
 x_48 free
 x_49 free
 x_5 free
 x_6 free
 x_7 free
 x_8 free
 x_9 free
End
